 vasp.5.4.4.18Apr17-6-g9f103f2a35 (build Dec 31 2018 11:41:54) complex

 executed on             LinuxIFC date 2022.07.05  12:57:55

 INCAR:
 POTCAR:   PAW_PBE O 08Apr2002
 POTCAR:   PAW_PBE Si 05Jan2001
 POTCAR:   PAW_PBE Al 04Jan2001
 POTCAR:   PAW_PBE Ag 06Sep2000
 POTCAR:    PAW_PBE S 17Jan2003
 POTCAR:   PAW_PBE C 08Apr2002
 POTCAR:   PAW_PBE H 15Jun2001
 POTCAR:   PAW_PBE O 08Apr2002
   VRHFIN =O: s2p4

   TITEL  = PAW_PBE O 08Apr2002
   POMASS =   16.000; ZVAL   =    6.000    mass and valenz
   ENMAX  =  400.000; ENMIN  =  300.000 eV
   QCUT   =   -5.520; QGAM   =   11.041    optimization parameters

   Description
     l     E      TYP  RCUT    TYP  RCUT
     0   .000     23  1.200
     0  -.700     23  1.200
     1   .000     23  1.520
     1   .600     23  1.520
     2   .000      7  1.500

 POTCAR:   PAW_PBE Si 05Jan2001
   VRHFIN =Si: s2p2

   TITEL  = PAW_PBE Si 05Jan2001
   POMASS =   28.085; ZVAL   =    4.000    mass and valenz
   ENMAX  =  245.345; ENMIN  =  184.009 eV
   QCUT   =   -4.246; QGAM   =    8.493    optimization parameters

[...]

 POTCAR:   PAW_PBE Al 04Jan2001
   VRHFIN =Al: s2p1

[...]

 POTCAR:   PAW_PBE Ag 06Sep2000
   VRHFIN =Ag : s1 d10

   TITEL  = PAW_PBE Ag 06Sep2000
   POMASS =  107.868; ZVAL   =   11.000    mass and valenz
   ENMAX  =  249.846; ENMIN  =  187.385 eV
   QCUT   =   -4.285; QGAM   =    8.570    optimization parameters

[...]

 POTCAR:    PAW_PBE S 17Jan2003
   VRHFIN =S : s2p4

   TITEL  = PAW_PBE S 17Jan2003
   POMASS =   32.066; ZVAL   =    6.000    mass and valenz
   ENMAX  =  280.000; ENMIN  =  194.016 eV
   QCUT   =   -4.360; QGAM   =    8.721    optimization parameters

[...]

 POTCAR:   PAW_PBE C 08Apr2002
   VRHFIN =C: s2p2

   TITEL  = PAW_PBE C 08Apr2002
   POMASS =   12.011; ZVAL   =    4.000    mass and valenz
   ENMAX  =  400.000; ENMIN  =  300.000 eV
   QCUT   =   -5.516; QGAM   =   11.032    optimization parameters

[...]

 POTCAR:   PAW_PBE H 15Jun2001
   VRHFIN =H: ultrasoft test

   TITEL  = PAW_PBE H 15Jun2001
   POMASS =    1.000; ZVAL   =    1.000    mass and valenz
   ENMAX  =  250.000; ENMIN  =  200.000 eV
   QCUT   =   -5.749; QGAM   =   11.498    optimization parameters

   Description
     l     E      TYP  RCUT    TYP  RCUT
     0   .000     23  1.100
     0   .500     23  1.100
     1  -.300     23  1.100

 Optimization of the real space projectors (new method)

 maximal supplied QI-value         = 24.76
 optimisation between [QCUT,QGAM] = [ 10.15, 20.30] = [ 28.85,115.39] Ry
 Optimized for a Real-space Cutoff    1.51 Angstroem

   l    n(q)    QCUT    max X(q) W(low)/X(q) W(high)/X(q)  e(spline)
   0      9    10.150     4.192    0.32E-04    0.13E-04    0.13E-06
   0      9    10.150     8.473    0.18E-03    0.20E-03    0.43E-06
   1      9    10.150     2.474    0.32E-04    0.33E-04    0.64E-07
   1      9    10.150     3.912    0.13E-03    0.16E-03    0.33E-06
 Optimization of the real space projectors (new method)

[...]

   l    n(q)    QCUT    max X(q) W(low)/X(q) W(high)/X(q)  e(spline)
   0      8    10.053     5.582    0.33E-04    0.15E-04    0.75E-07
   0      8    10.053    69.432    0.23E-03    0.38E-03    0.25E-06
   1      8    10.053     2.780    0.76E-04    0.11E-03    0.15E-06
   1      8    10.053     4.549    0.19E-03    0.19E-03    0.27E-06
 Optimization of the real space projectors (new method)

 maximal supplied QI-value         = 34.20
 optimisation between [QCUT,QGAM] = [  9.92, 20.18] = [ 27.55,114.04] Ry
 Optimized for a Real-space Cutoff    1.34 Angstroem

   l    n(q)    QCUT    max X(q) W(low)/X(q) W(high)/X(q)  e(spline)
   0      8     9.919     4.436    0.31E-04    0.59E-04    0.66E-07
   0      8     9.919    16.131    0.16E-03    0.20E-03    0.35E-06
   1      8     9.919     4.654    0.19E-03    0.46E-03    0.40E-06
 PAW_PBE O 08Apr2002                    :
 PAW_PBE Si 05Jan2001                   :
 PAW_PBE Al 04Jan2001                   :
 PAW_PBE Ag 06Sep2000                   :
  PAW_PBE S 17Jan2003                   :
 PAW_PBE C 08Apr2002                    :
 PAW_PBE H 15Jun2001                    :

 POSCAR: O  C
  positions in direct lattice
  velocities in cartesian coordinates
 exchange correlation table for  LEXCH =        8
   RHO(1)=    0.500       N(1)  =     2000
   RHO(2)=  100.500       N(2)  =     4000

 VTST: version 3.2, (02/03/18)

 CHAIN: initializing optimizer

 OPT: Using VASP Quick-Min optimizer
 CHAIN: Read ICHAIN            1

 POSCAR: O  C
  positions in direct lattice
  velocities in cartesian coordinates
 CHAIN: Running the Dynamical Matrix

 ion  position               nearest neighbor table
   1  0.898  0.099  0.120-  73 1.63  80 1.63
   2  0.111  0.892  0.880-  79 1.62  74 1.62
   3  0.894  0.794  0.126-  83 1.61  75 1.64
   4  0.095  0.199  0.864-  76 1.63  82 1.63
   5  0.196  0.105  0.116-  77 1.63  81 1.63
   6  0.810  0.913  0.888-  78 1.59 106 1.72
   7  0.559  0.429  0.455-  84 1.62  90 1.63
   8  0.762  0.232  0.219-  89 1.59 107 1.73
   9  0.569  0.145  0.472-  85 1.65  94 1.65
  10  0.769  0.544  0.217-  93 1.63  86 1.63
  11  0.859  0.426  0.454-  92 1.63  87 1.64
  12  0.463  0.235  0.184-  88 1.63  91 1.64
  13  0.240  0.777  0.798- 102 1.61  95 1.64
  14  0.427  0.572  0.525-  96 1.66 101 1.67 110 2.55
  15  0.237  0.459  0.781-  97 1.62 105 1.62
  16  0.432  0.854  0.531-  98 1.62 108 1.79 110 2.31
  17  0.524  0.756  0.803-  99 1.64 104 1.64
  18  0.124  0.560  0.542- 103 1.64 100 1.66 110 2.55
  19  0.976  0.318  0.159-  73 1.61  89 1.63
  20  0.021  0.674  0.838- 102 1.62  74 1.63
  21  0.678  0.674  0.172-  93 1.61  75 1.62
  22  0.313  0.319  0.819- 105 1.62  76 1.63
  23  0.316  0.014  0.180-  77 1.61  91 1.63
  24  0.667  0.980  0.827- 104 1.62  78 1.62
  25  0.330  0.995  0.837-  79 1.62  95 1.63
  26  0.676  0.002  0.164-  80 1.60 107 1.74 109 2.56
  27  0.673  0.685  0.816-  99 1.60 106 1.75 111 2.37
  28  0.332  0.324  0.158-  81 1.62  88 1.62
  29  0.020  0.343  0.835-  97 1.61  82 1.62
  30  0.987  0.669  0.170-  86 1.62  83 1.62
  31  0.649  0.641  0.506- 101 1.61  84 1.62
  32  0.346  0.999  0.479-  85 1.59 108 1.71
  33  0.993  0.343  0.498- 103 1.60  87 1.63
  34  0.342  0.353  0.483-  96 1.61  90 1.63
  35  0.983  0.639  0.509- 100 1.62  92 1.62
  36  0.653  0.010  0.515-  98 1.61  94 1.63
  37  0.117  0.243  0.132-  81 1.62  73 1.62
  38  0.891  0.759  0.859-  74 1.61 106 1.76 111 2.28
  39  0.762  0.880  0.111-  80 1.60  75 1.61
  40  0.229  0.111  0.872-  76 1.61  79 1.62
  41  0.112  0.884  0.127-  77 1.61  83 1.61
  42  0.875  0.129  0.860-  82 1.61  78 1.63
  43  0.779  0.566  0.449-  84 1.60  92 1.61
  44  0.534  0.085  0.176-  91 1.62 107 1.79 109 2.31
  45  0.420  0.214  0.467-  90 1.60  85 1.63
  46  0.897  0.452  0.196-  86 1.61  89 1.63
  47  0.785  0.208  0.452-  87 1.60  94 1.63
  48  0.549  0.455  0.192-  88 1.61  93 1.62
  49  0.457  0.908  0.806- 104 1.62  95 1.63
  50  0.211  0.431  0.532-  96 1.62 103 1.62
  51  0.115  0.556  0.791-  97 1.61 102 1.61
  52  0.582  0.790  0.520- 101 1.61  98 1.64
  53  0.454  0.536  0.800- 105 1.62  99 1.63
  54  0.207  0.774  0.521- 100 1.59 108 1.75 110 2.64
  55  0.000  0.259  0.996-  82 1.61  73 1.62
  56  0.995  0.730  0.002-  74 1.62  83 1.63
  57  0.731  0.713  0.000-  75 1.59 106 1.72
  58  0.253  0.267  0.992-  76 1.63  81 1.63
  59  0.272  0.004  0.005-  79 1.63  77 1.64
  60  0.645  0.591  0.333-  84 1.61  93 1.63
  61  0.630  0.049  0.342-  94 1.60 107 1.72
  62  0.441  0.109  0.326-  91 1.61  85 1.63
  63  0.938  0.593  0.334-  92 1.62  86 1.63
  64  0.940  0.345  0.328-  87 1.62  89 1.65
  65  0.408  0.326  0.322-  90 1.62  88 1.63
  66  0.340  0.932  0.667-  95 1.59 108 1.74
  67  0.347  0.412  0.655-  96 1.62 105 1.64
  68  0.067  0.397  0.665- 103 1.62  97 1.63
  69  0.580  0.900  0.667- 104 1.61  98 1.62
  70  0.570  0.662  0.662- 101 1.61  99 1.63
  71  0.082  0.678  0.668- 100 1.63 102 1.63
  72  0.732  0.016  0.996-  78 1.67  80 1.68 109 2.47
  73  0.996  0.229  0.103-  19 1.61  37 1.62  55 1.62   1 1.63  89 3.09  81 3.09  80 3.13  82 3.14

  74  0.005  0.766  0.896-  38 1.61  56 1.62   2 1.62  20 1.63 102 3.03  83 3.10 106 3.19 111 3.28

[...]

  99  0.556  0.661  0.772-  27 1.60  70 1.63  53 1.63  17 1.64 104 3.06 105 3.07 106 3.17
 100  0.099  0.666  0.560-  54 1.59  35 1.62  71 1.63  18 1.66  92 3.08 102 3.15 108 3.16 110 3.25

 101  0.559  0.668  0.554-  70 1.61  31 1.61  52 1.61  14 1.67  98 3.03  84 3.06  96 3.11
 102  0.117  0.674  0.773-  13 1.61  51 1.61  20 1.62  71 1.63  74 3.03  95 3.11 100 3.15
 103  0.097  0.431  0.560-  33 1.60  68 1.62  50 1.62  18 1.64  87 3.08  97 3.08
 104  0.556  0.885  0.775-  69 1.61  49 1.62  24 1.62  17 1.64  99 3.06  95 3.09  78 3.10
 105  0.337  0.431  0.764-  53 1.62  22 1.62  15 1.62  67 1.64  76 3.07  99 3.07
 106  0.775  0.773  0.895-  57 1.72   6 1.72  27 1.75  38 1.76 111 3.00  75 3.03  99 3.17  74 3.19
                            78 3.20
 107  0.654  0.094  0.231-  61 1.72   8 1.73  26 1.74  44 1.79  91 3.07 109 3.10  94 3.11  80 3.15
                            89 3.24
 108  0.331  0.897  0.553-  32 1.71  66 1.74  54 1.75  16 1.79  85 3.09 100 3.16  98 3.19 110 3.21
                            95 3.23
 109  0.561  0.025  0.037-  44 2.31  72 2.47  26 2.56 107 3.10  80 3.17
 110  0.322  0.673  0.476-  16 2.31  14 2.55  18 2.55  54 2.64 108 3.21 100 3.25  98 3.36
 111  0.786  0.610  0.766-  38 2.28 112 2.31  27 2.37 106 3.00  74 3.28
 112  0.766  0.487  0.651- 113 1.80 114 1.81 111 2.31
 113  0.859  0.432  0.671- 117 1.09 115 1.09 116 1.09 112 1.80
 114  0.626  0.364  0.652- 120 1.09 118 1.09 119 1.10 112 1.81
 115  0.879  0.408  0.606- 113 1.09
 116  0.824  0.361  0.718- 113 1.09
 117  0.935  0.502  0.700- 113 1.09
 118  0.626  0.296  0.692- 114 1.09
 119  0.569  0.388  0.683- 114 1.10
 120  0.601  0.336  0.582- 114 1.09

  LATTYP: Found a hexagonal cell.
 ALAT       =    13.6750001907
 C/A-ratio  =     1.0798537472

  Lattice vectors:

 A1 = (  13.6750001907,   0.0000000000,   0.0000000000)
 A2 = (  -6.8375000954,  11.8428975619,   0.0000000000)
 A3 = (   0.0000000000,   0.0000000000,  14.7670001984)

Analysis of symmetry for initial positions (statically):
 Subroutine PRICEL returns:
 Original cell was already a primitive cell.

 Routine SETGRP: Setting up the symmetry group for a
 hexagonal supercell.

 Subroutine GETGRP returns: Found  1 space group operations
 (whereof  1 operations were pure point group operations)
 out of a pool of 24 trial point group operations.

The static configuration has the point symmetry C_1 .

Analysis of symmetry for dynamics (positions and initial velocities):
 Subroutine PRICEL returns:
 Original cell was already a primitive cell.

[...]

The dynamic configuration has the point symmetry C_1 .

Analysis of structural, dynamic, and magnetic symmetry:
 Subroutine PRICEL returns:
 Original cell was already a primitive cell.

 Routine SETGRP: Setting up the symmetry group for a
 hexagonal supercell.

 Subroutine GETGRP returns: Found  1 space group operations
 (whereof  1 operations were pure point group operations)
 out of a pool of 24 trial point group operations.

The magnetic configuration has the point symmetry C_1 .

[...]
       8.352386057816835       9.111672840543671       1.559683619125304
 DYNMAT: Loop at J=          84
 DYNMAT: Before DIRKAR
 DYNMAT: After DIRKAR
       5.201259809443574       6.595741926183750       6.414839995202077
 DYNMAT: Loop at J=          85
 DYNMAT: Before DIRKAR
 DYNMAT: After DIRKAR
       5.282370433767732       1.333578785175710       6.441871303498693
 DYNMAT: Loop at J=          86
 DYNMAT: Before DIRKAR
 DYNMAT: After DIRKAR
       8.396217160377702       6.673265924795256       3.380072344651365
 DYNMAT: Loop at J=          87
 DYNMAT: Before DIRKAR
 DYNMAT: After DIRKAR
       9.959885977474681       3.896069273707915       6.359302942927036
 DYNMAT: Loop at J=          88
 DYNMAT: Before DIRKAR
 DYNMAT: After DIRKAR
       3.709151368089477       3.964138755822814       3.167727499750651
 DYNMAT: Loop at J=          89
 DYNMAT: Before DIRKAR
 DYNMAT: After DIRKAR
       9.885666599276542       3.945762967298057       3.324944780044458
 DYNMAT: Loop at J=          90
 DYNMAT: Before DIRKAR
 DYNMAT: After DIRKAR
       3.652343010920788       3.903396927340490       6.342446381494077
 DYNMAT: Loop at J=          91
 DYNMAT: Before DIRKAR
 DYNMAT: After DIRKAR
       5.250867983232556       1.311205555847497       3.208623308157979
 DYNMAT: Loop at J=          92
 DYNMAT: Before DIRKAR
 DYNMAT: After DIRKAR
       8.376241677062287       6.580381621075083       6.435273389999426
 DYNMAT: Loop at J=          93
 DYNMAT: Before DIRKAR
 DYNMAT: After DIRKAR
       5.185223975944659       6.698946684053849       3.359852815036881
 DYNMAT: Loop at J=          94
 DYNMAT: Before DIRKAR
 DYNMAT: After DIRKAR
       8.297023278337143       1.204774856913867       6.525527576459123
 DYNMAT: Loop at J=          95
 DYNMAT: Before DIRKAR
 DYNMAT: After DIRKAR
      -1.519742697653114      10.712354969508525      11.396718948842439
 DYNMAT: Loop at J=          96
 DYNMAT: Before DIRKAR
 DYNMAT: After DIRKAR
       1.533479972147402       5.209828945124988       8.135920276400441
 DYNMAT: Loop at J=          97
 DYNMAT: Before DIRKAR
 DYNMAT: After DIRKAR
      -1.489637734593351       5.195804526286894      11.348195793624853
 DYNMAT: Loop at J=          98
 DYNMAT: Before DIRKAR
 DYNMAT: After DIRKAR
       1.584437503807818      10.548107535034873       8.244134018518436
 DYNMAT: Loop at J=          99
 DYNMAT: Before DIRKAR
 DYNMAT: After DIRKAR
       3.083058887851808       7.828864712218063      11.398177051670341
 DYNMAT: Loop at J=         100
 DYNMAT: Before DIRKAR
 DYNMAT: After DIRKAR
      -3.198404381230722       7.888139799597304       8.271305782020136
 DYNMAT: Loop at J=         101
 DYNMAT: Before DIRKAR
 DYNMAT: After DIRKAR
       3.076228974930311       7.907670880411600       8.185906711680190
 DYNMAT: Loop at J=         102
 DYNMAT: Before DIRKAR
 DYNMAT: After DIRKAR
      -3.004370673451247       7.976243338111957      11.412465223545661
 DYNMAT: Loop at J=         103
 DYNMAT: Before DIRKAR
 DYNMAT: After DIRKAR
      -1.625195566059321       5.101052999694726       8.268803524381649
 DYNMAT: Loop at J=         104
 DYNMAT: Before DIRKAR
 DYNMAT: After DIRKAR
       1.556948504129562      10.478577914538350      11.438221556467349
 DYNMAT: Loop at J=         105
 DYNMAT: Before DIRKAR
 DYNMAT: After DIRKAR
       1.665350740241123       5.105177766382629      11.281761541740220
 DYNMAT: Loop at J=         106
 DYNMAT: Before DIRKAR
 DYNMAT: After DIRKAR
       5.311578771426727       9.157900690188345      13.214657313539321
 DYNMAT: Loop at J=         107
 DYNMAT: Before DIRKAR
 DYNMAT: After DIRKAR
       8.304003809906877       1.114901433411379       3.417677166518699
 DYNMAT: Loop at J=         108
 DYNMAT: Before DIRKAR
 DYNMAT: After DIRKAR
      -1.608503739129630      10.618243906235097       8.170301635118852
 DYNMAT: Loop at J=         109
 DYNMAT: Before DIRKAR
 DYNMAT: After DIRKAR
       7.500050293819618       0.296890801165337       0.542790875509755
 DYNMAT: Loop at J=         110
 DYNMAT: Before DIRKAR
 DYNMAT: After DIRKAR
      -0.201692642355169       7.974720367350286       7.027532609895670
 DYNMAT: Loop at J=         111
 DYNMAT: Before DIRKAR
 DYNMAT: After DIRKAR
       6.582842424446254       7.218517978294522      11.311410947529211
 DYNMAT: Loop at J=         112
 DYNMAT: Before DIRKAR
 DYNMAT: After DIRKAR
       7.143581288643339       5.764830757459720       9.609373741022944
 DYNMAT: Loop at J=         113
 DYNMAT: Before DIRKAR
 DYNMAT: After DIRKAR
       8.792947710243093       5.117773621523899       9.910410543592088
 DYNMAT: Loop at J=         114
 DYNMAT: Before DIRKAR
 DYNMAT: After DIRKAR
       6.078907322193653       4.305973976063560       9.626696685416979
 DYNMAT: Loop at J=         115
 DYNMAT: Before DIRKAR
 DYNMAT: After DIRKAR
       9.226242246533273       4.836495020101884       8.947458694307427
 DYNMAT: Loop at J=         116
 DYNMAT: Before DIRKAR
 DYNMAT: After DIRKAR
       8.803417704495462       4.275263070874190      10.607337040614167
 DYNMAT: Loop at J=         117
 DYNMAT: Before DIRKAR
 DYNMAT: After DIRKAR
       9.357363533002408       5.950573804615271      10.330846951663624
 DYNMAT: Loop at J=         118
 DYNMAT: Before DIRKAR
 DYNMAT: After DIRKAR
       6.541078779748245       3.509618423558375      10.218693614301442
 DYNMAT: Loop at J=         119
 DYNMAT: Before DIRKAR
 DYNMAT: After DIRKAR
       5.125483321729079       4.599768261555499      10.079434465913261
 DYNMAT: Loop at J=         120
 DYNMAT: Before DIRKAR
 DYNMAT: After DIRKAR
       5.920195857636020       3.982018022944279       8.594540417007032
 HIPREC TOTAL-FORCE (eV/A)
      -0.002294130718412       0.014696234256468       0.003492793328582
      -0.015585966994158       0.014802902440390      -0.006270863707331
      -0.000943220023966       0.012406819929056       0.010222196845759
       0.007749666972202       0.008602964852731      -0.008309433461478
       0.005457021484727       0.009856376654416      -0.011435280892223
       0.023552634764900       0.017208461686378       0.004771311616889
       0.024131546837503       0.006009971013106       0.004079572546566
       0.007274190418462       0.003101083105373      -0.004425540309034
       0.003058411519128       0.007013281750161      -0.004151081572079
      -0.000708473517682       0.029105487961644       0.039165305548555
      -0.004654650354445       0.006813360774723       0.000318173422152
       0.006619786116875       0.009538644945235       0.002688031160489
       0.014530655064492      -0.002427479606845      -0.009243797307786
      -0.000739286209936       0.013746893435682      -0.007794445900361
       0.007875188776130       0.011358988996082       0.007786316453769
       0.003794986919090       0.005752451422673      -0.004512173510183
      -0.020751302567118       0.004300740442994      -0.005299506807679
       0.002114325303747       0.000568390579656       0.004279324492168
      -0.001094353185479       0.018794009597281      -0.004426957170126
       0.009428674903982       0.005843479103058       0.003042499467362
       0.001903349231050       0.007277665625734      -0.007546600984042
       0.004033262090066       0.014053452090975      -0.002716904574499
       0.001588623799214       0.009078561073550      -0.008756208767674
       0.007607698155065      -0.008405670783544      -0.005032153929254
      -0.012429498362693      -0.003429034876717      -0.012948570424820
       0.000860291612928       0.004385254127584      -0.001761798175104
      -0.010562543730926       0.025340872256542      -0.012949994680699
       0.009393656812369       0.008399303257940       0.000772543525882
       0.002158679860691       0.010330854074249      -0.004172651519845
       0.002359774588201       0.006149565006493      -0.010571345559303
       0.003131082945772       0.006373017471627       0.011458638175677
       0.002447054046502       0.003113982952726       0.000404078533994
       0.002089688547835       0.007453930783278      -0.001196955526558
       0.014991954404091       0.018738700282830       0.006907237415600
       0.000748444867065       0.002600925229700       0.009635789988443
       0.002465687861566       0.010316269900045      -0.002503133570810
       0.008501946835775       0.009185154099252       0.011516570687523
       0.001359016294520      -0.011202128014183      -0.033373543982748
       0.015231306784659      -0.004913559608888      -0.001015740735185
       0.004946088986951       0.010973555212689       0.005122966128499
       0.002223028476105       0.003036445035024      -0.008483385389394
      -0.002048085941694       0.011680929823637       0.003504978177322
      -0.001963160223366       0.031954684718092      -0.028745447134611
       0.002679800319442       0.006046142026954      -0.001017718128659
       0.008086849526688       0.005857372112314      -0.002397839202405
      -0.013434834244547       0.007212955864456      -0.004109075235971
      -0.004419297404346      -0.001626527065483      -0.008399113317493
       0.017243453000496       0.012025876144750      -0.003717436882463
      -0.004184771830990       0.025853290080135      -0.008797890580476
       0.011905573024214       0.004151346080762      -0.015077815236236
      -0.003516587691254      -0.006577178288142      -0.006940091515322
       0.006706164484823       0.014267465717046      -0.006459756659426
       0.002661451091974       0.007479499682200       0.002201262593721
       0.005291844538103      -0.000475588589443      -0.000475013915645
       0.017116880751737       0.008388818363060       0.003030738508066
      -0.022133488440786       0.011856508586515      -0.005011097703754
       0.017262524336896       0.018164070772346      -0.004173965146347
      -0.009637491158822       0.016741304896408       0.000677763288465
       0.002704881447049      -0.000037572726260      -0.009740776539798
      -0.029964384815116       0.011673423282391      -0.001497221577766
[...]
       0.009656133479674       0.014796814687214      -0.012350799061393
       0.004362156636795       0.005769699705277      -0.004338988080153
       0.000053022354397      -0.001765213389579      -0.006610630006370
       0.004531426339601       0.000927508641432       0.000579135047399
      -0.001106030055160       0.005181552655149      -0.009302528704886
      -0.026508956961800      -0.020683199254251      -0.031889692413279
      -0.019846544494470      -0.076170471261618       0.001451751385153
      -0.037499545552143      -0.102734354040646       0.044392799964010
      -0.012649943169333      -0.073921960238757       0.048261323095124
      -0.041158589691190      -0.177929489517373       0.065932193195700
      -0.086103894922040      -0.075371499034866       0.089932173362114
      -0.007421203612215      -0.112311873273991       0.013821637191553
      -0.024334808175688      -0.050897393324537       0.074217653246520
      -0.034507701555243      -0.078423711217001      -0.026862587552896
       0.028308725264533      -0.136343587186579       0.000004808935251
DYMAT: ------------------------------
DYMAT: DEGREE OF FREEDOM 112  1  1
DYMAT: ------------------------------
DYMAT: DEGREE OF FREEDOM 112  2  2
DYMAT: ------------------------------
DYMAT: DEGREE OF FREEDOM 112  3  3
DYMAT: ------------------------------
DYMAT: DEGREE OF FREEDOM 113  1  4
DYMAT: ------------------------------
DYMAT: DEGREE OF FREEDOM 113  2  5
DYMAT: ------------------------------
DYMAT: DEGREE OF FREEDOM 113  3  6
DYMAT: ------------------------------
DYMAT: DEGREE OF FREEDOM 114  1  7
DYMAT: ------------------------------
DYMAT: DEGREE OF FREEDOM 114  2  8
DYMAT: ------------------------------
DYMAT: DEGREE OF FREEDOM 114  3  9
DYMAT: ------------------------------
DYMAT: DEGREE OF FREEDOM 115  1 10
DYMAT: ------------------------------
DYMAT: DEGREE OF FREEDOM 115  2 11
DYMAT: ------------------------------
DYMAT: DEGREE OF FREEDOM 115  3 12
DYMAT: ------------------------------
DYMAT: DEGREE OF FREEDOM 116  1 13
DYMAT: ------------------------------
DYMAT: DEGREE OF FREEDOM 116  2 14
DYMAT: ------------------------------
DYMAT: DEGREE OF FREEDOM 116  3 15
DYMAT: ------------------------------
DYMAT: DEGREE OF FREEDOM 117  1 16
DYMAT: ------------------------------
DYMAT: DEGREE OF FREEDOM 117  2 17
DYMAT: ------------------------------
DYMAT: DEGREE OF FREEDOM 117  3 18
DYMAT: ------------------------------
DYMAT: DEGREE OF FREEDOM 118  1 19
DYMAT: ------------------------------
DYMAT: DEGREE OF FREEDOM 118  2 20
DYMAT: ------------------------------
DYMAT: DEGREE OF FREEDOM 118  3 21
DYMAT: ------------------------------
DYMAT: DEGREE OF FREEDOM 119  1 22
DYMAT: ------------------------------
DYMAT: DEGREE OF FREEDOM 119  2 23
DYMAT: ------------------------------
DYMAT: DEGREE OF FREEDOM 119  3 24
DYMAT: ------------------------------
DYMAT: DEGREE OF FREEDOM 120  1 25
DYMAT: ------------------------------
DYMAT: DEGREE OF FREEDOM 120  2 26
DYMAT: ------------------------------
DYMAT: DEGREE OF FREEDOM 120  3 27
DYMAT: LEAVING
 stress matrix after NEB project (eV)
    -19.67620      0.41453     -0.74350
      0.41453    -18.30698     -0.71813
     -0.74350     -0.71813    -20.72157
  FORCES: max atom, RMS     0.194165    0.037660
  FORCE total and by dimension    0.412542    0.177929
  Stress total and by dimension   33.972963   20.721567

 total charge

[...]

 magnetization (x)

# of ion       s       p       d       tot
    1       -0.000   0.000   0.000   0.000
    2        0.000   0.000   0.000   0.000
    3       -0.000   0.000   0.000   0.000
    4        0.000   0.000   0.000   0.000
    5        0.000   0.000   0.000   0.000
    6        0.000   0.000   0.000   0.000
    7        0.000   0.000   0.000   0.000
    8       -0.000   0.000   0.000   0.000
    9       -0.000   0.000   0.000   0.000
   10        0.000  -0.000   0.000  -0.000
   11        0.000   0.000   0.000   0.000
   12        0.000  -0.000   0.000  -0.000
   13       -0.000   0.000   0.000   0.000
   14       -0.000   0.000   0.000   0.000
   15       -0.000   0.000   0.000   0.000
   16       -0.000   0.000   0.000   0.000
   17       -0.000   0.000   0.000   0.000
   18       -0.000   0.000   0.000   0.000
   19        0.000   0.000   0.000   0.000
   20        0.000   0.000   0.000   0.000
   21        0.000   0.000   0.000   0.000
   22        0.000   0.000   0.000   0.000
   23       -0.000   0.000   0.000   0.000
   24        0.000   0.000   0.000   0.000
   25        0.000   0.000   0.000   0.000
   26        0.000   0.000   0.000   0.000
   27       -0.000   0.000   0.000   0.000
   28        0.000  -0.000   0.000   0.000
   29        0.000   0.000   0.000   0.000
   30        0.000  -0.000   0.000   0.000
   31        0.000   0.000   0.000   0.000
   32       -0.000   0.000   0.000   0.000
   33        0.000   0.000   0.000   0.000
   34        0.000   0.000   0.000   0.000
   35        0.000   0.000   0.000   0.000
   36        0.000   0.000   0.000   0.000
   37        0.000  -0.000   0.000  -0.000
   38        0.000  -0.000   0.000  -0.000
   39        0.000  -0.000   0.000  -0.000
   40        0.000   0.000   0.000   0.000
   41        0.000   0.000   0.000   0.000
   42        0.000   0.000   0.000   0.000
   43        0.000   0.000   0.000   0.000
   44        0.000   0.000   0.000   0.000
   45       -0.000  -0.000   0.000  -0.000
   46       -0.000   0.000   0.000   0.000
   47        0.000   0.000   0.000   0.000
   48        0.000   0.000   0.000   0.000
   49        0.000  -0.000   0.000   0.000
   50        0.000  -0.000   0.000  -0.000
   51       -0.000   0.000   0.000   0.000
   52        0.000  -0.000   0.000  -0.000
   53        0.000  -0.000   0.000  -0.000
   54       -0.000  -0.000   0.000  -0.000
   55        0.000  -0.000   0.000  -0.000
   56        0.000   0.000   0.000   0.000
   57        0.000  -0.000   0.000  -0.000
   58       -0.000  -0.000   0.000  -0.000
   59        0.000   0.000   0.000   0.000
   60        0.000  -0.000   0.000  -0.000
[...]
  106       -0.000   0.000   0.000   0.000
  107        0.000   0.000   0.000   0.000
  108        0.000   0.000   0.000   0.000
  109       -0.000  -0.000  -0.000  -0.000
  110       -0.000  -0.000   0.000   0.000
  111       -0.000   0.000  -0.000  -0.000
  112       -0.000   0.000   0.000  -0.000
  113       -0.000   0.000   0.000   0.000
  114        0.000   0.000   0.000   0.000
  115       -0.000   0.000   0.000  -0.000
  116       -0.000  -0.000   0.000  -0.000
  117       -0.000   0.000   0.000  -0.000
  118        0.000  -0.000   0.000   0.000
  119        0.000  -0.000   0.000   0.000
  120       -0.000  -0.000   0.000  -0.000
tot         -0.000   0.000   0.000   0.000