 vasp.5.4.4.18Apr17-6-g9f103f2a35 (build Dec 31 2018 11:41:54) complex

 executed on             LinuxIFC date 2022.04.22  20:02:39

 INCAR:
 POTCAR:   PAW_PBE O 08Apr2002
 POTCAR:   PAW_PBE Si 05Jan2001
 POTCAR:   PAW_PBE Al 04Jan2001
 POTCAR:   PAW_PBE Ag 06Sep2000
 POTCAR:   PAW_PBE O 08Apr2002
   VRHFIN =O: s2p4

   TITEL  = PAW_PBE O 08Apr2002
   POMASS =   16.000; ZVAL   =    6.000    mass and valenz
   ENMAX  =  400.000; ENMIN  =  300.000 eV
   QCUT   =   -5.520; QGAM   =   11.041    optimization parameters

   Description
     l     E      TYP  RCUT    TYP  RCUT
     0   .000     23  1.200
     0  -.700     23  1.200
     1   .000     23  1.520
     1   .600     23  1.520
     2   .000      7  1.500

 POTCAR:   PAW_PBE Si 05Jan2001
   VRHFIN =Si: s2p2

   TITEL  = PAW_PBE Si 05Jan2001
   POMASS =   28.085; ZVAL   =    4.000    mass and valenz
   ENMAX  =  245.345; ENMIN  =  184.009 eV
   QCUT   =   -4.246; QGAM   =    8.493    optimization parameters

[...]

 POTCAR:   PAW_PBE Al 04Jan2001
   VRHFIN =Al: s2p1

   TITEL  = PAW_PBE Al 04Jan2001
   POMASS =   26.982; ZVAL   =    3.000    mass and valenz
   ENMAX  =  240.300; ENMIN  =  180.225 eV
   QCUT   =   -4.203; QGAM   =    8.405    optimization parameters

[...]

 POTCAR:   PAW_PBE Ag 06Sep2000
   VRHFIN =Ag : s1 d10

   TITEL  = PAW_PBE Ag 06Sep2000
   POMASS =  107.868; ZVAL   =   11.000    mass and valenz
   ENMAX  =  249.846; ENMIN  =  187.385 eV
   QCUT   =   -4.285; QGAM   =    8.570    optimization parameters

   Description
     l     E      TYP  RCUT    TYP  RCUT
     2   .000     23  2.400
     2   .000     23  2.400
     0   .000     23  2.400
     0   .000     23  2.400
     1  -.200     23  2.400
     1  1.500     23  2.400
     3   .000      7   .000

 Optimization of the real space projectors (new method)

 maximal supplied QI-value         = 24.76
 optimisation between [QCUT,QGAM] = [ 10.15, 20.30] = [ 28.85,115.39] Ry
 Optimized for a Real-space Cutoff    1.51 Angstroem

   l    n(q)    QCUT    max X(q) W(low)/X(q) W(high)/X(q)  e(spline)
   0      9    10.150     4.192    0.32E-04    0.13E-04    0.13E-06
   0      9    10.150     8.473    0.18E-03    0.20E-03    0.43E-06
   1      9    10.150     2.474    0.32E-04    0.33E-04    0.64E-07
   1      9    10.150     3.912    0.13E-03    0.16E-03    0.33E-06
 Optimization of the real space projectors (new method)

[...]

   l    n(q)    QCUT    max X(q) W(low)/X(q) W(high)/X(q)  e(spline)
   0      8    10.119    13.410    0.28E-04    0.17E-04    0.51E-08
   0      8    10.119   140.052    0.10E-03    0.16E-03    0.42E-07
   1      7    10.119     9.624    0.38E-04    0.42E-05    0.15E-07
   1      7    10.119    53.353    0.23E-03    0.17E-03    0.13E-06
 Optimization of the real space projectors (new method)

 maximal supplied QI-value         = 15.68
 optimisation between [QCUT,QGAM] = [ 10.20, 20.39] = [ 29.11,116.42] Ry
 Optimized for a Real-space Cutoff    1.51 Angstroem

   l    n(q)    QCUT    max X(q) W(low)/X(q) W(high)/X(q)  e(spline)
   2      8    10.195     3.831    0.11E-04    0.20E-04    0.48E-07
   2      8    10.195    20.184    0.23E-03    0.42E-03    0.20E-06
   0      9    10.195    16.770    0.13E-04    0.90E-05    0.63E-08
   0      9    10.195    80.708    0.19E-03    0.15E-03    0.44E-07
   1      9    10.195     6.696    0.12E-04    0.45E-04    0.30E-07
   1      9    10.195     8.973    0.12E-03    0.15E-03    0.13E-06
 PAW_PBE O 08Apr2002                    :
 PAW_PBE Si 05Jan2001                   :
 PAW_PBE Al 04Jan2001                   :
 PAW_PBE Ag 06Sep2000                   :

 POSCAR: O  C
  positions in direct lattice
  velocities in cartesian coordinates
 exchange correlation table for  LEXCH =        8
   RHO(1)=    0.500       N(1)  =     2000
   RHO(2)=  100.500       N(2)  =     4000

 VTST: version 3.2, (02/03/18)

 CHAIN: initializing optimizer

 OPT: Using VASP Dynamics algorithm
 CHAIN: Read ICHAIN            0

 POSCAR: O  C
  positions in direct lattice
  velocities in cartesian coordinates

 ion  position               nearest neighbor table
   1  0.896  0.095  0.120-  74 1.63  81 1.63
   2  0.101  0.887  0.880-  75 1.62  80 1.63
   3  0.891  0.792  0.130-  84 1.62  76 1.64
   4  0.093  0.194  0.867-  77 1.63  83 1.63
   5  0.193  0.101  0.117-  78 1.63  82 1.63
   6  0.799  0.901  0.883-  79 1.60 107 1.72
   7  0.552  0.424  0.458-  85 1.62  91 1.63
   8  0.761  0.232  0.220-  90 1.59 108 1.73
   9  0.564  0.140  0.471-  95 1.64  86 1.64
  10  0.764  0.536  0.204-  94 1.63  87 1.63
  11  0.863  0.424  0.461-  93 1.62  88 1.63
  12  0.462  0.234  0.184-  89 1.63  92 1.64
  13  0.229  0.772  0.777- 103 1.61  96 1.64
  14  0.423  0.568  0.525- 102 1.66  97 1.66 111 2.56
  15  0.231  0.450  0.775- 106 1.62  98 1.62
  16  0.427  0.849  0.532-  99 1.62 109 1.79 111 2.28
  17  0.531  0.755  0.806- 100 1.63 105 1.64
  18  0.121  0.557  0.534- 104 1.65 101 1.68 111 2.45
  19  0.974  0.314  0.161-  74 1.61  90 1.63
  20  0.019  0.667  0.842- 103 1.62  75 1.62
  21  0.675  0.671  0.175-  94 1.61  76 1.63
  22  0.311  0.315  0.819- 106 1.62  77 1.63
  23  0.316  0.013  0.178-  78 1.61  92 1.63
  24  0.661  0.978  0.828- 105 1.62  79 1.63
  25  0.321  0.982  0.839-  80 1.61  96 1.63
  26  0.675  0.003  0.163-  81 1.60 108 1.74 110 2.54
  27  0.671  0.672  0.813- 100 1.63 107 1.78 112 2.23
  28  0.329  0.321  0.159-  82 1.62  89 1.62
  29  0.016  0.334  0.833-  98 1.61  83 1.62
  30  0.984  0.668  0.173-  84 1.62  87 1.62
  31  0.645  0.640  0.503- 102 1.61  85 1.62
  32  0.340  0.991  0.476-  86 1.59 109 1.71
  33  0.992  0.335  0.499- 104 1.60  88 1.63
  34  0.334  0.348  0.482-  97 1.61  91 1.63
  35  0.985  0.642  0.504- 101 1.62  93 1.62
  36  0.647  0.006  0.516-  99 1.61  95 1.64
  37  0.115  0.241  0.129-  82 1.61  74 1.62
  38  0.882  0.746  0.854-  75 1.64 107 1.78 112 2.27
  39  0.758  0.876  0.112-  81 1.60  76 1.61
  40  0.226  0.106  0.870-  77 1.61  80 1.62
  41  0.109  0.880  0.129-  78 1.61  84 1.61
  42  0.874  0.120  0.859-  83 1.62  79 1.62
  43  0.772  0.554  0.470-  85 1.61  93 1.62
  44  0.533  0.085  0.176-  92 1.62 108 1.79 110 2.31
  45  0.412  0.207  0.468-  91 1.60  86 1.64
  46  0.901  0.452  0.198-  87 1.61  90 1.63
  47  0.781  0.205  0.453-  88 1.60  95 1.63
  48  0.544  0.454  0.195-  89 1.61  94 1.62
  49  0.445  0.891  0.808- 105 1.62  96 1.64
  50  0.208  0.427  0.540-  97 1.61 104 1.62
  51  0.118  0.552  0.802-  98 1.61 103 1.62
  52  0.578  0.786  0.521- 102 1.61  99 1.64
  53  0.450  0.533  0.801- 100 1.62 106 1.62
  54  0.200  0.774  0.544- 101 1.58 109 1.74 111 2.77
  55  0.994  0.255  0.995-  83 1.62  74 1.63
  56  0.986  0.728  0.003-  75 1.62  84 1.63
  57  0.730  0.710  0.002-  76 1.60 107 1.72
  58  0.254  0.263  0.992-  77 1.63  82 1.63
  59  0.265  0.998  0.004-  80 1.63  78 1.64
  60  0.659  0.584  0.335-  85 1.61  94 1.63
  61  0.629  0.047  0.342-  95 1.60 108 1.72
  62  0.437  0.105  0.326-  92 1.61  86 1.63
  63  0.915  0.584  0.336-  93 1.62  87 1.63
  64  0.937  0.342  0.331-  88 1.62  90 1.64
  65  0.404  0.322  0.323-  91 1.62  89 1.63
  66  0.355  0.946  0.668-  96 1.59 109 1.74
  67  0.350  0.408  0.655-  97 1.62 106 1.64
  68  0.058  0.404  0.666- 104 1.61  98 1.63
  69  0.573  0.894  0.668- 105 1.61  99 1.62
  70  0.568  0.658  0.661- 102 1.61 100 1.62
  71  0.052  0.640  0.671- 103 1.63 101 1.63
  72  0.730  0.011  0.995-  79 1.66  81 1.67 110 2.50
  73  0.792  0.511  0.662- 112 1.96
  74  0.994  0.226  0.102-  19 1.61  37 1.62  55 1.63   1 1.63  90 3.10  82 3.10  81 3.12  83 3.14

  75  0.999  0.759  0.896-  56 1.62  20 1.62   2 1.62  38 1.64 103 3.06  84 3.13 107 3.17
  76  0.763  0.761  0.102-  57 1.60  39 1.61  21 1.63   3 1.64  94 3.00 107 3.07  84 3.09
  77  0.221  0.219  0.888-  40 1.61  58 1.63  22 1.63   4 1.63 106 3.07  82 3.11  83 3.13
  78  0.220  0.999  0.107-  41 1.61  23 1.61   5 1.63  59 1.64  92 3.04  80 3.08
  79  0.768  0.999  0.890-   6 1.60  42 1.62  24 1.63  72 1.66 105 3.07  83 3.09  81 3.10 107 3.23

[...]

 102  0.554  0.664  0.553-  31 1.61  52 1.61  70 1.61  14 1.66  99 3.04  85 3.06  97 3.11
 103  0.107  0.660  0.772-  13 1.61  51 1.62  20 1.62  71 1.63  75 3.06 101 3.08  98 3.08
 104  0.092  0.428  0.560-  33 1.60  68 1.61  50 1.62  18 1.65  88 3.03  98 3.09 101 3.14
 105  0.552  0.880  0.776-  69 1.61  49 1.62  24 1.62  17 1.64  79 3.07 100 3.08  96 3.08
 106  0.334  0.425  0.763-  22 1.62  15 1.62  53 1.62  67 1.64  77 3.07 100 3.07  97 3.11
 107  0.770  0.764  0.894-  57 1.72   6 1.72  27 1.78  38 1.78 112 3.04  76 3.07 100 3.15  75 3.17
                            79 3.23
 108  0.653  0.094  0.232-  61 1.72   8 1.73  26 1.74  44 1.79  92 3.07 110 3.10  95 3.11  81 3.16
                            90 3.23
 109  0.329  0.897  0.557-  32 1.71  54 1.74  66 1.74  16 1.79  86 3.07  96 3.13  99 3.17 111 3.23

 110  0.561  0.025  0.037-  44 2.31  72 2.50  26 2.54 108 3.10  81 3.17
 111  0.316  0.669  0.480-  16 2.28  18 2.45  14 2.56  54 2.77 109 3.23 101 3.25  99 3.35
 112  0.781  0.614  0.748-  73 1.96  27 2.23  38 2.27 107 3.04

  LATTYP: Found a hexagonal cell.
 ALAT       =    13.6750001907
 C/A-ratio  =     1.0798537472

  Lattice vectors:

 A1 = (  13.6750001907,   0.0000000000,   0.0000000000)
 A2 = (  -6.8375000954,  11.8428975619,   0.0000000000)
 A3 = (   0.0000000000,   0.0000000000,  14.7670001984)

Analysis of symmetry for initial positions (statically):
 Subroutine PRICEL returns:
 Original cell was already a primitive cell.

 Routine SETGRP: Setting up the symmetry group for a
 hexagonal supercell.

 Subroutine GETGRP returns: Found  1 space group operations
 (whereof  1 operations were pure point group operations)
 out of a pool of 24 trial point group operations.

The static configuration has the point symmetry C_1 .

Analysis of symmetry for dynamics (positions and initial velocities):
 Subroutine PRICEL returns:
 Original cell was already a primitive cell.

[...]

The dynamic configuration has the point symmetry C_1 .

Analysis of structural, dynamic, and magnetic symmetry:
 Subroutine PRICEL returns:
 Original cell was already a primitive cell.

 Routine SETGRP: Setting up the symmetry group for a
 hexagonal supercell.

 Subroutine GETGRP returns: Found  1 space group operations
 (whereof  1 operations were pure point group operations)
 out of a pool of 24 trial point group operations.

The magnetic configuration has the point symmetry C_1 .

 Subroutine INISYM returns: Found  1 space group operations
 (whereof  1 operations are pure point group operations),
 and found     1 'primitive' translations

 KPOINTS: Gamma points only
  k-points in reciprocal lattice
Space group operators:
 irot       det(A)        alpha          n_x          n_y          n_z        tau_x        tau_y        tau_z
    1     1.000000     0.000000     1.000000     0.000000     0.000000     0.000000     0.000000     0.000000

 Subroutine IBZKPT_HF returns following result:

 Found      1 k-points in 1st BZ
 the following      1 k-points will be used (e.g. in the exchange kernel)
 Following reciprocal coordinates:   # in IRBZ
  0.000000  0.000000  0.000000    1.00000000   1 t-inv F

 SYSTEM =  SiO2
 POSCAR =  O  C

 Startparameter for this run:
[...]
   -.264E+02 0.803E+02 -.827E+02   0.411E+02 -.857E+02 0.860E+02   -.133E+02 0.483E+01 -.294E+01   0.665E-03 -.345E-02 -.305E-02
   0.132E+03 -.209E+03 -.482E+01   -.144E+03 0.230E+03 0.577E+01   0.103E+02 -.182E+02 -.821E+00   -.118E-02 0.460E-02 -.857E-02
   0.207E+03 0.122E+01 -.308E+02   -.229E+03 0.484E+00 0.336E+02   0.199E+02 -.149E+01 -.248E+01   -.169E-02 0.278E-02 -.422E-02
   -.245E+03 -.260E+02 -.268E+02   0.269E+03 0.283E+02 0.300E+02   -.215E+02 -.207E+01 -.281E+01   0.230E-02 -.137E-02 -.777E-02
   -.128E+03 -.211E+03 0.307E+02   0.143E+03 0.228E+03 -.272E+02   -.131E+02 -.149E+02 -.316E+01   -.140E-03 0.103E-03 0.126E-01
   0.248E+03 0.720E+02 0.212E+02   -.267E+03 -.871E+02 -.251E+02   0.173E+02 0.134E+02 0.335E+01   -.599E-03 -.208E-02 0.116E-01
   -.130E+03 0.270E+03 0.117E+02   0.141E+03 -.293E+03 -.123E+02   -.950E+01 0.203E+02 0.592E+00   0.185E-02 0.225E-02 0.125E-01
   0.153E+03 0.233E+03 0.587E+02   -.167E+03 -.251E+03 -.663E+02   0.131E+02 0.155E+02 0.671E+01   -.157E-02 0.274E-02 0.118E-01
   0.117E+03 -.248E+03 0.487E+02   -.130E+03 0.268E+03 -.481E+02   0.115E+02 -.178E+02 -.532E+00   -.381E-03 0.246E-04 0.127E-01
   -.240E+03 -.756E+02 -.440E+02   0.261E+03 0.850E+02 0.520E+02   -.186E+02 -.830E+01 -.706E+01   0.113E-02 -.203E-02 0.126E-01
   0.140E+01 -.123E+03 -.205E+03   -.161E+01 0.130E+03 0.224E+03   0.188E+00 -.633E+01 -.169E+02   0.321E-03 0.459E-02 -.985E-02
   0.213E+02 -.367E+02 0.639E+02   -.308E+02 0.367E+02 -.774E+02   0.861E+01 0.113E+00 0.121E+02   -.254E-03 -.345E-02 -.765E-02
   0.700E+02 0.586E+02 -.163E+03   -.732E+02 -.614E+02 0.170E+03   0.278E+01 0.245E+01 -.681E+01   -.191E-02 -.332E-02 -.107E-01
   -.616E+02 -.431E+02 0.188E+03   0.633E+02 0.429E+02 -.204E+03   -.144E+01 0.157E+00 0.140E+02   0.112E-02 0.174E-02 -.837E-02
   -.697E+02 0.451E+02 -.196E+03   0.725E+02 -.470E+02 0.211E+03   -.250E+01 0.171E+01 -.130E+02   0.184E-02 -.300E-02 -.102E-01
   0.798E+02 -.620E+02 0.214E+03   -.872E+02 0.654E+02 -.234E+03   0.654E+01 -.300E+01 0.177E+02   -.106E-02 0.170E-02 -.771E-02
   0.675E+01 -.965E+02 -.104E+03   -.623E+01 0.989E+02 0.123E+03   -.437E+00 -.214E+01 -.169E+02   -.418E-03 0.164E-02 0.132E-01
   -.845E+01 0.683E+02 0.724E+02   0.196E+02 -.735E+02 -.869E+02   -.994E+01 0.464E+01 0.130E+02   -.497E-04 -.167E-02 -.837E-02
   0.140E+03 0.104E+03 -.199E+03   -.148E+03 -.111E+03 0.222E+03   0.659E+01 0.680E+01 -.195E+02   -.153E-02 0.209E-02 0.123E-01
   -.106E+03 -.536E+02 0.203E+03   0.112E+03 0.552E+02 -.223E+03   -.534E+01 -.138E+01 0.172E+02   0.192E-02 0.263E-02 -.653E-02
   -.134E+03 0.934E+02 -.127E+03   0.141E+03 -.997E+02 0.138E+03   -.569E+01 0.559E+01 -.914E+01   0.129E-02 0.147E-02 0.119E-01
   0.107E+03 -.633E+02 0.192E+03   -.112E+03 0.676E+02 -.210E+03   0.442E+01 -.374E+01 0.160E+02   -.231E-02 0.253E-02 -.663E-02
   0.151E+02 -.730E+02 -.184E+03   -.175E+02 0.741E+02 0.205E+03   0.211E+01 -.943E+00 -.191E+02   0.670E-04 -.165E-02 -.588E-03
   -.366E+01 0.213E+03 0.149E+03   0.282E+01 -.217E+03 -.160E+03   0.729E+00 0.347E+01 0.973E+01   0.496E-03 0.133E-02 0.110E-01
   0.529E+01 0.269E+02 -.254E+03   -.222E+00 -.240E+02 0.275E+03   -.447E+01 -.264E+01 -.186E+02   -.241E-03 -.382E-03 0.231E-03
   -.189E+03 -.138E+03 0.220E+03   0.199E+03 0.147E+03 -.242E+03   -.809E+01 -.776E+01 0.193E+02   0.672E-03 -.295E-02 0.111E-01
   -.723E+02 0.787E+02 -.246E+03   0.778E+02 -.825E+02 0.268E+03   -.491E+01 0.337E+01 -.196E+02   0.126E-02 -.474E-03 -.122E-04
   0.158E+03 -.190E+03 0.136E+03   -.155E+03 0.204E+03 -.146E+03   -.252E+01 -.124E+02 0.839E+01   -.409E-03 -.251E-02 0.111E-01
   0.940E+02 -.200E+03 -.129E+02   -.103E+03 0.216E+03 0.134E+02   0.807E+01 -.142E+02 -.478E+00   -.437E-03 0.395E-02 -.130E-01
   -.106E+03 0.186E+03 -.355E+02   0.111E+03 -.204E+03 0.374E+02   -.424E+01 0.161E+02 -.156E+01   0.112E-02 -.338E-02 -.132E-01
   0.106E+03 0.210E+03 0.251E+02   -.111E+03 -.233E+03 -.346E+02   0.400E+01 0.198E+02 0.854E+01   -.123E-02 -.358E-02 -.133E-01
   -.954E+02 -.210E+03 -.642E+01   0.104E+03 0.229E+03 0.638E+01   -.730E+01 -.169E+02 0.571E-01   0.876E-03 0.423E-02 -.129E-01
   -.195E+03 0.437E+01 -.621E+01   0.218E+03 -.332E+01 0.758E+01   -.197E+02 -.912E+00 -.118E+01   0.139E-02 -.105E-02 -.130E-01
   0.100E+03 -.199E+03 0.246E+02   -.109E+03 0.215E+03 -.251E+02   0.776E+01 -.139E+02 0.455E+00   -.181E-02 0.669E-03 0.501E-02
[...]
   -.783E+02 -.735E+02 0.359E+02   0.756E+02 0.742E+02 -.371E+02   0.249E+01 -.645E+00 0.110E+01   0.614E-03 -.208E-02 0.751E-02
   -.146E+02 0.275E+02 -.717E+02   0.158E+02 -.270E+02 0.720E+02   -.858E+00 -.354E+00 -.717E-01   0.600E-03 -.162E-02 0.102E-02
   0.760E+02 -.609E+02 0.375E+02   -.752E+02 0.656E+02 -.383E+02   -.720E+00 -.435E+01 0.644E+00   -.243E-03 -.719E-03 0.756E-02
   -.660E+02 -.494E+02 0.569E+02   0.671E+02 0.510E+02 -.568E+02   -.108E+01 -.146E+01 -.124E+00   0.205E-03 -.843E-03 0.755E-02
   0.200E+02 0.176E+02 -.625E+02   -.196E+02 -.173E+02 0.627E+02   -.406E+00 -.308E+00 -.535E-01   -.376E-03 -.146E-02 0.108E-02
   -.241E+01 0.117E+03 0.334E+02   0.125E+01 -.118E+03 -.330E+02   0.113E+01 0.844E+00 -.446E+00   0.716E-03 0.922E-03 0.764E-02
   0.461E+01 -.560E+02 -.356E+02   -.497E+01 0.568E+02 0.352E+02   0.387E+00 -.800E+00 0.406E+00   0.681E-04 -.130E-02 0.870E-03
   -.569E+02 0.553E+02 -.494E+02   0.561E+02 -.552E+02 0.502E+02   0.840E+00 -.116E+00 -.666E+00   0.785E-03 0.104E-02 0.137E-02
   0.129E+02 0.986E+01 -.546E+01   -.131E+02 -.966E+01 0.731E+01   0.340E+00 -.310E+00 -.194E+01   -.816E-04 -.175E-02 -.480E-02
   -.172E+02 0.408E+02 -.149E+02   0.183E+02 -.405E+02 0.152E+02   -.112E+01 -.382E+00 -.404E+00   -.103E-03 -.771E-03 -.194E-02
   0.737E+02 -.601E+02 0.192E+02   -.742E+02 0.608E+02 -.198E+02   0.456E+00 -.689E+00 0.528E+00   -.221E-03 -.133E-02 0.567E-02
   0.224E+03 0.573E+02 0.215E+03   -.222E+03 -.564E+02 -.210E+03   -.136E+01 -.913E+00 -.460E+01   -.985E-03 -.259E-02 -.240E-01
   -.218E+01 0.114E+02 0.545E+03   0.175E+01 -.815E+01 -.542E+03   0.404E+00 -.303E+01 -.254E+01   0.900E-03 -.388E-02 0.147E-01
   -.274E+02 0.175E+03 0.300E+02   0.276E+02 -.176E+03 -.300E+02   -.569E+00 0.630E+00 0.551E+00   -.721E-04 -.525E-02 0.430E-02
   0.444E+01 0.389E+01 0.243E+02   -.817E-13 0.369E-12 0.675E-13   -.355E+01 -.255E+01 -.206E+02   0.184E-02 -.703E-02 -.784E-02

 POSITION                                       TOTAL-FORCE (eV/Angst)
     11.61047      1.12390      1.76815        -0.236349      0.183872     -0.208956
     -4.67660     10.50222     13.00056         0.264061     -0.046331      0.199683
      6.76199      9.38468      1.91950         0.054521     -0.262218     -0.242037
     -0.05231      2.29826     12.80624         0.011141      0.265502      0.246048
      1.94396      1.20077      1.72840         0.236244      0.131935     -0.173301
      4.76350     10.67560     13.03489        -0.381843      0.187535      0.112555
      4.64859      5.02354      6.76776        -0.159065      0.138149     -0.238657
      8.82113      2.74789      3.24405         0.345562      0.152229      0.106944
      6.75490      1.65470      6.95764         0.002570     -0.305705     -0.333631
      6.77765      6.35194      3.01909         0.003681      0.208651      0.269665
      8.90176      5.02063      6.80575         0.163033      0.154706     -0.227286
      4.71702      2.76714      2.71818        -0.227746     -0.096933      0.349358
     -2.14746      9.14078     11.47768        -0.143698      0.018740     -0.107491
      1.90094      6.72576      7.75736         0.239894     -0.139281      0.278944
      0.08415      5.32437     11.44953        -0.024496     -0.184303     -0.131995
      0.03065     10.05536      7.84973         0.292916      0.228111      0.237502
      2.10285      8.93650     11.89642         0.090461      0.149124     -0.387077
     -2.15891      6.59768      7.88326        -0.189568     -0.132569      0.303125
     11.17930      3.71315      2.37883        -0.155321     -0.328034      0.031324
     -4.30172      7.90448     12.43379         0.194289      0.313436     -0.161186
      4.64448      7.94923      2.59134         0.439580     -0.136021     -0.066481
      2.10184      3.72661     12.09939        -0.393324      0.079871      0.049736
      4.23191      0.14970      2.62817        -0.099978      0.373083     -0.190233
      2.35713     11.58081     12.22712         0.145309     -0.329703      0.047840
     -2.32214     11.62984     12.39236        -0.211010     -0.304572     -0.040885
      9.21342      0.03180      2.40683         0.305631      0.240178     -0.229794
      4.58221      7.95298     12.00215        -0.552944      0.082654     -0.114785
      2.30811      3.80219      2.34364         0.209368     -0.363464     -0.006811
     -2.07057      3.96030     12.29678         0.388122     -0.009175     -0.056853
      8.89604      7.90987      2.55390        -0.426740     -0.068393     -0.023850
      4.44632      7.57593      7.43334        -0.222828     -0.315575     -0.060028
     -2.12679     11.73950      7.03020         0.353579      0.322381      0.015163
     11.27816      3.96580      7.36910        -0.207585      0.406897      0.007585
      2.19322      4.12321      7.11898         0.265913      0.316008      0.120424
      9.07581      7.60048      7.44960         0.196135     -0.373947      0.014411
      8.81229      0.07218      7.62018        -0.367409     -0.130237     -0.153484
     -0.07347      2.85972      1.90885         0.006027     -0.125783     -0.331581
      6.96385      8.83392     12.61522         0.399848      0.095391      0.381915
      4.37112     10.37221      1.64720         0.050482      0.056678     -0.134126
      2.37190      1.25648     12.84510        -0.029267      0.015939      0.286043
     -4.52428     10.42565      1.89893        -0.038004      0.056588     -0.251160
     11.13066      1.42219     12.69100         0.137452     -0.015898      0.347403
      6.77037      6.55783      6.94011         0.010325     -0.066539     -0.285516
      6.71339      1.00405      2.59377        -0.281219      0.148350      0.378794
      4.21849      2.45392      6.90725         0.137099      0.147183     -0.377775
      9.23132      5.34737      2.92074        -0.108714     -0.040884      0.355817
      9.28620      2.42426      6.69171        -0.112882      0.135930     -0.192229
      4.33590      5.37292      2.87517         0.092774     -0.083642      0.327457
     -0.00276     10.55184     11.92847         0.003014     -0.017000     -0.388185
     -0.07852      5.05573      7.97064        -0.002727      0.099486      0.196546
     -2.16791      6.54132     11.84795        -0.081766     -0.047667     -0.388385
      2.52221      9.31251      7.68935        -0.176102     -0.176916      0.370734
      2.50437      6.31026     11.82253        -0.148736      0.002232     -0.415447
     -2.54745      9.16049      8.03770        -0.076222     -0.358865      0.180374
     11.85304      3.02263     14.70001         0.167363     -0.280262     -0.003854
      8.50279      8.61708      0.04537        -0.050764      0.321960      0.049670
      5.13345      8.40767      0.02401         0.084228      0.407138      0.329690
      1.68299      3.11206     14.65087        -0.154711     -0.343825      0.008343
     -3.20866     11.82506      0.06114        -0.390022     -0.006614     -0.003542
      5.02121      6.92019      4.94562         0.155650     -0.290797      0.041095
[...]
     -1.52446      5.14650     11.35892        -0.013310     -0.008451      0.075577
      1.53879     10.50222      8.25223        -0.060003      0.026783     -0.004605
      3.09111      7.75420     11.37327         0.286368      0.083071      0.243312
     -3.25784      7.77943      8.33274         0.077212      0.114969     -0.065369
      3.04314      7.86269      8.16448         0.022988      0.053245      0.042532
     -3.05506      7.81640     11.40160        -0.002100      0.014205      0.149886
     -1.67055      5.07260      8.27550         0.017136     -0.028462     -0.025234
      1.53817     10.41597     11.45470         0.043063     -0.014171      0.051100
      1.66519      5.03781     11.26235         0.060430      0.035327      0.078150
      5.29821      9.05052     13.20885         0.096854     -0.113621     -0.132355
      8.29505      1.10924      3.42389        -0.037469     -0.072037     -0.056917
     -1.62883     10.62049      8.22659         0.022592      0.003704     -0.029474
      7.50070      0.29680      0.54403        -0.004536     -0.019659     -0.001313
     -0.25826      7.92621      7.09259         0.005772      0.014999     -0.034805
      6.48358      7.27546     11.04290        -0.173431      0.275942      0.284083
    total drift:                               -0.002533     -0.000645      0.002895

  FREE ENERGIE OF THE ION-ELECTRON SYSTEM (eV)
  free  energy   TOTEN  =     -1178.70702857 eV

  energy  without entropy=    -1178.70702857  energy(sigma->0) =    -1178.70702857

 stress matrix after NEB project (eV)
      0.00000      0.00000      0.00000
      0.00000      0.00000      0.00000
      0.00000      0.00000      0.00000
  FORCES: max atom, RMS     0.570750    0.321876
  FORCE total and by dimension    3.406413    0.552944
  Stress total and by dimension    0.000000    0.000000

 total charge

[...]

 magnetization (x)

# of ion       s       p       d       tot
    1        0.000  -0.000   0.000  -0.000
    2        0.000   0.001   0.000   0.001
    3        0.000   0.000   0.000   0.000
    4        0.000  -0.000   0.000   0.000
    5        0.000   0.000   0.000   0.000
    6        0.000   0.001   0.000   0.001
    7       -0.000  -0.000   0.000  -0.000
    8       -0.000  -0.000   0.000  -0.000
    9       -0.000   0.000   0.000   0.000
   10       -0.000   0.000   0.000   0.000
   11       -0.000  -0.000   0.000  -0.000
   12        0.000  -0.000   0.000  -0.000
   13        0.000   0.000   0.000   0.000
   14       -0.000  -0.000   0.000  -0.000
   15       -0.000   0.000   0.000   0.000
   16        0.000   0.000   0.000   0.000
   17        0.000   0.001   0.000   0.001
   18       -0.000  -0.000   0.000  -0.000
   19        0.000  -0.000   0.000  -0.000
   20       -0.000  -0.001   0.000  -0.001
   21        0.000   0.000   0.000   0.000
   22        0.000   0.000   0.000   0.000
   23        0.000   0.000   0.000   0.000
   24        0.000   0.000   0.000   0.000
   25        0.000   0.000   0.000   0.000
   26       -0.000   0.000   0.000   0.000
   27        0.002   0.023   0.000   0.025
   28        0.000   0.000   0.000   0.000
   29       -0.000   0.000   0.000   0.000
   30        0.000   0.000   0.000   0.000
   31       -0.000  -0.000   0.000  -0.000
   32        0.000   0.000   0.000   0.000
   33       -0.000  -0.000   0.000  -0.000
   34       -0.000  -0.000   0.000  -0.000
   35        0.000   0.002   0.000   0.002
   36        0.000   0.000   0.000   0.000
   37        0.000  -0.000   0.000   0.000
   38        0.002   0.029   0.000   0.031
   39       -0.000   0.000   0.000   0.000
   40       -0.000  -0.000   0.000  -0.000
   41       -0.000   0.000   0.000   0.000
   42       -0.000   0.000   0.000   0.000
   43        0.001   0.009   0.000   0.009
   44        0.000  -0.000   0.000  -0.000
   45       -0.000  -0.000   0.000  -0.000
   46        0.000   0.000   0.000   0.000
   47        0.000   0.000   0.000   0.000
   48        0.000   0.000   0.000   0.000
   49        0.000   0.000   0.000   0.000
   50       -0.000   0.000   0.000   0.000
   51       -0.000   0.000   0.000   0.000
   52       -0.000   0.000   0.000  -0.000
   53        0.000   0.000   0.000   0.000
   54        0.000   0.000   0.000   0.000
   55       -0.000  -0.000   0.000  -0.000
   56        0.000   0.001   0.000   0.001
   57        0.000   0.001   0.000   0.001
   58        0.000   0.000   0.000   0.000
   59        0.000   0.000   0.000   0.000
   60        0.000   0.000   0.000   0.000
[...]
   98       -0.000  -0.000   0.000  -0.000
   99       -0.000  -0.000   0.000  -0.000
  100        0.000   0.000   0.000   0.000
  101       -0.000  -0.000   0.000  -0.000
  102       -0.000  -0.000   0.000  -0.000
  103       -0.000   0.000   0.000  -0.000
  104       -0.000  -0.000   0.000  -0.000
  105        0.000   0.000   0.000   0.000
  106        0.000   0.000   0.000   0.000
  107       -0.000   0.000   0.000  -0.000
  108       -0.000  -0.000   0.000  -0.000
  109       -0.000   0.000   0.000   0.000
  110       -0.000  -0.000   0.000  -0.000
  111       -0.000  -0.000   0.000   0.000
  112       -0.018  -0.009   0.320   0.293
tot          0.007   1.397   0.320   1.724