 vasp.5.4.4.18Apr17-6-g9f103f2a35 (build Dec 31 2018 11:41:54) complex

 executed on             LinuxIFC date 2022.06.28  11:58:36

 INCAR:
 POTCAR:   PAW_PBE O 08Apr2002
 POTCAR:   PAW_PBE Si 05Jan2001
 POTCAR:   PAW_PBE Al 04Jan2001
 POTCAR:   PAW_PBE Ag 06Sep2000
 POTCAR:    PAW_PBE S 17Jan2003
 POTCAR:   PAW_PBE O 08Apr2002
   VRHFIN =O: s2p4

   TITEL  = PAW_PBE O 08Apr2002
   POMASS =   16.000; ZVAL   =    6.000    mass and valenz
   ENMAX  =  400.000; ENMIN  =  300.000 eV
   QCUT   =   -5.520; QGAM   =   11.041    optimization parameters

   Description
     l     E      TYP  RCUT    TYP  RCUT
     0   .000     23  1.200
     0  -.700     23  1.200
     1   .000     23  1.520
     1   .600     23  1.520
     2   .000      7  1.500

 POTCAR:   PAW_PBE Si 05Jan2001
   VRHFIN =Si: s2p2

   TITEL  = PAW_PBE Si 05Jan2001
   POMASS =   28.085; ZVAL   =    4.000    mass and valenz
   ENMAX  =  245.345; ENMIN  =  184.009 eV
   QCUT   =   -4.246; QGAM   =    8.493    optimization parameters

[...]

 POTCAR:   PAW_PBE Al 04Jan2001
   VRHFIN =Al: s2p1

[...]

 POTCAR:   PAW_PBE Ag 06Sep2000
   VRHFIN =Ag : s1 d10

   TITEL  = PAW_PBE Ag 06Sep2000
   POMASS =  107.868; ZVAL   =   11.000    mass and valenz
   ENMAX  =  249.846; ENMIN  =  187.385 eV
   QCUT   =   -4.285; QGAM   =    8.570    optimization parameters

[...]

 POTCAR:    PAW_PBE S 17Jan2003
   VRHFIN =S : s2p4

   TITEL  = PAW_PBE S 17Jan2003
   POMASS =   32.066; ZVAL   =    6.000    mass and valenz
   ENMAX  =  280.000; ENMIN  =  194.016 eV
   QCUT   =   -4.360; QGAM   =    8.721    optimization parameters

   Description
     l     E      TYP  RCUT    TYP  RCUT
     0   .000     23  1.900
     0   .000     23  1.900
     1   .000     23  1.900
     1   .000     23  1.900
     2   .000     23  1.900

 Optimization of the real space projectors (new method)

 maximal supplied QI-value         = 24.76
 optimisation between [QCUT,QGAM] = [ 10.15, 20.30] = [ 28.85,115.39] Ry
 Optimized for a Real-space Cutoff    1.51 Angstroem

   l    n(q)    QCUT    max X(q) W(low)/X(q) W(high)/X(q)  e(spline)
   0      9    10.150     4.192    0.32E-04    0.13E-04    0.13E-06
   0      9    10.150     8.473    0.18E-03    0.20E-03    0.43E-06
   1      9    10.150     2.474    0.32E-04    0.33E-04    0.64E-07
   1      9    10.150     3.912    0.13E-03    0.16E-03    0.33E-06
 Optimization of the real space projectors (new method)

[...]

   l    n(q)    QCUT    max X(q) W(low)/X(q) W(high)/X(q)  e(spline)
   2      8    10.195     3.831    0.11E-04    0.20E-04    0.48E-07
   2      8    10.195    20.184    0.23E-03    0.42E-03    0.20E-06
   0      9    10.195    16.770    0.13E-04    0.90E-05    0.63E-08
   0      9    10.195    80.708    0.19E-03    0.15E-03    0.44E-07
   1      9    10.195     6.696    0.12E-04    0.45E-04    0.30E-07
   1      9    10.195     8.973    0.12E-03    0.15E-03    0.13E-06
 Optimization of the real space projectors (new method)

 maximal supplied QI-value         = 19.84
 optimisation between [QCUT,QGAM] = [ 10.12, 20.44] = [ 28.68,116.96] Ry
 Optimized for a Real-space Cutoff    1.42 Angstroem

   l    n(q)    QCUT    max X(q) W(low)/X(q) W(high)/X(q)  e(spline)
   0      9    10.119     5.487    0.15E-04    0.47E-05    0.66E-08
   0      9    10.119    85.627    0.51E-04    0.92E-04    0.63E-07
   1      8    10.119     3.530    0.37E-05    0.76E-05    0.28E-07
   1      8    10.119    42.714    0.16E-03    0.16E-03    0.23E-06
 PAW_PBE O 08Apr2002                    :
 PAW_PBE Si 05Jan2001                   :
 PAW_PBE Al 04Jan2001                   :
 PAW_PBE Ag 06Sep2000                   :
  PAW_PBE S 17Jan2003                   :

 POSCAR: O  C
  positions in direct lattice
  velocities in cartesian coordinates
 exchange correlation table for  LEXCH =        8
   RHO(1)=    0.500       N(1)  =     2000
   RHO(2)=  100.500       N(2)  =     4000

 VTST: version 3.2, (02/03/18)

 CHAIN: initializing optimizer

 OPT: Using VASP Dynamics algorithm
 CHAIN: Read ICHAIN            0

 POSCAR: O  C
  positions in direct lattice
  velocities in cartesian coordinates

 ion  position               nearest neighbor table
   1  0.900  0.099  0.118-  75 1.63  82 1.63
   2  0.106  0.891  0.878-  76 1.62  81 1.63
   3  0.894  0.795  0.129-  85 1.62  77 1.64
   4  0.096  0.197  0.864-  78 1.63  84 1.63
   5  0.197  0.105  0.115-  79 1.62  83 1.63
   6  0.803  0.907  0.879-  80 1.60 108 1.72
   7  0.556  0.428  0.454-  86 1.62  92 1.63
   8  0.764  0.235  0.218-  91 1.59 109 1.73
   9  0.566  0.142  0.470-  96 1.64  87 1.64
  10  0.768  0.541  0.205-  95 1.63  88 1.63
  11  0.866  0.428  0.458-  94 1.62  89 1.63
  12  0.465  0.237  0.183-  90 1.63  93 1.64
  13  0.231  0.777  0.774- 104 1.61  97 1.64
  14  0.426  0.571  0.525-  98 1.66 103 1.66 112 2.55
  15  0.234  0.453  0.772- 107 1.62  99 1.62
  16  0.430  0.853  0.530- 100 1.63 110 1.79 112 2.27
  17  0.535  0.758  0.805- 101 1.63 106 1.64
  18  0.125  0.561  0.533- 105 1.65 102 1.68 112 2.44
  19  0.978  0.317  0.159-  75 1.61  91 1.63
  20  0.022  0.670  0.841- 104 1.62  76 1.63
  21  0.678  0.673  0.171-  95 1.61  77 1.63
  22  0.314  0.318  0.818- 107 1.62  78 1.63
  23  0.319  0.016  0.177-  79 1.61  93 1.63
  24  0.664  0.982  0.826- 106 1.62  80 1.63
  25  0.326  0.987  0.838-  81 1.61  97 1.63
  26  0.678  0.005  0.161-  82 1.60 109 1.74 111 2.54
  27  0.673  0.673  0.813- 101 1.62 108 1.78 113 2.27
  28  0.334  0.325  0.156-  83 1.62  90 1.62
  29  0.020  0.339  0.832-  99 1.61  84 1.62
  30  0.988  0.671  0.170-  85 1.62  88 1.62
  31  0.647  0.642  0.503- 103 1.61  86 1.62
  32  0.342  0.995  0.475-  87 1.59 110 1.71
  33  0.995  0.339  0.498- 105 1.60  89 1.63
  34  0.339  0.352  0.480-  98 1.61  92 1.63
  35  0.987  0.645  0.504- 102 1.62  94 1.62
  36  0.651  0.009  0.515- 100 1.61  96 1.64
  37  0.119  0.244  0.129-  83 1.61  75 1.62
  38  0.887  0.750  0.852-  76 1.63 108 1.78 113 2.31
  39  0.762  0.879  0.110-  82 1.60  77 1.61
  40  0.231  0.110  0.870-  78 1.61  81 1.62
  41  0.113  0.884  0.128-  79 1.61  85 1.61
  42  0.877  0.125  0.858-  84 1.61  80 1.62
  43  0.776  0.559  0.466-  86 1.61  94 1.62
  44  0.536  0.087  0.175-  93 1.62 109 1.79 111 2.31
  45  0.416  0.211  0.467-  92 1.60  87 1.64
  46  0.903  0.454  0.197-  88 1.61  91 1.63
  47  0.784  0.209  0.453-  89 1.60  96 1.63
  48  0.548  0.456  0.194-  90 1.61  95 1.62
  49  0.447  0.893  0.807- 106 1.62  97 1.64
  50  0.210  0.429  0.540-  98 1.62 105 1.62
  51  0.123  0.557  0.801-  99 1.61 104 1.62
  52  0.580  0.789  0.520- 103 1.61 100 1.64
  53  0.452  0.536  0.799- 107 1.62 101 1.63
  54  0.203  0.778  0.546- 102 1.58 110 1.74
  55  1.000  0.259  0.994-  84 1.62  75 1.63
  56  0.991  0.732  0.001-  76 1.62  85 1.63
  57  0.736  0.716  0.998-  77 1.60 108 1.72
  58  0.256  0.267  0.991-  78 1.63  83 1.63
  59  0.268  0.001  0.003-  81 1.63  79 1.64
  60  0.662  0.591  0.333-  86 1.62  95 1.63
  61  0.633  0.051  0.341-  96 1.60 109 1.72
  62  0.440  0.108  0.324-  93 1.61  87 1.63
  63  0.923  0.590  0.334-  94 1.62  88 1.63
  64  0.940  0.344  0.329-  89 1.62  91 1.64
  65  0.406  0.324  0.321-  92 1.62  90 1.63
  66  0.361  0.952  0.666-  97 1.59 110 1.74
  67  0.354  0.410  0.654-  98 1.63 107 1.64
  68  0.060  0.409  0.665- 105 1.62  99 1.63
  69  0.576  0.897  0.667- 106 1.61 100 1.62
  70  0.570  0.661  0.660- 103 1.61 101 1.62
  71  0.053  0.639  0.670- 104 1.64 102 1.64
  72  0.733  0.014  0.993-  80 1.66  82 1.67 111 2.49
  73  0.742  0.337  0.797- 114 1.44
  74  0.714  0.374  0.635- 114 1.44
  75  0.997  0.229  0.101-  19 1.61  37 1.62  55 1.63   1 1.63  83 3.09  91 3.10  82 3.12  84 3.14

  76  0.003  0.763  0.895-  56 1.62   2 1.62  38 1.63  20 1.63 104 3.06  85 3.13 108 3.16 113 3.37

[...]

 103  0.557  0.667  0.552-  31 1.61  70 1.61  52 1.61  14 1.66 100 3.04  86 3.07  98 3.10
 104  0.110  0.664  0.771-  13 1.61  51 1.62  20 1.62  71 1.64  76 3.06 102 3.06  99 3.07
 105  0.095  0.432  0.559-  33 1.60  68 1.62  50 1.62  18 1.65  89 3.03  99 3.08 102 3.13
 106  0.555  0.882  0.774-  69 1.61  49 1.62  24 1.62  17 1.64  80 3.07  97 3.08 101 3.08
 107  0.338  0.428  0.761-  22 1.62  15 1.62  53 1.62  67 1.64  78 3.07 101 3.07  98 3.10
 108  0.775  0.770  0.891-  57 1.72   6 1.72  38 1.78  27 1.78 113 3.02  77 3.08 101 3.14  76 3.16
                            80 3.22
 109  0.657  0.096  0.230-  61 1.72   8 1.73  26 1.74  44 1.79  93 3.07 111 3.09  96 3.12  82 3.16
                            91 3.23
 110  0.333  0.901  0.556-  32 1.71  54 1.74  66 1.74  16 1.79  87 3.06  97 3.12 100 3.17 112 3.24

 111  0.565  0.028  0.035-  44 2.31  72 2.49  26 2.54 109 3.09  82 3.17
 112  0.320  0.673  0.479-  16 2.27  18 2.44  14 2.55 110 3.24 102 3.26 100 3.34
 113  0.771  0.586  0.775-  27 2.27  38 2.31 114 2.33 108 3.02  76 3.37
 114  0.742  0.411  0.727-  74 1.44  73 1.44 113 2.33

  LATTYP: Found a hexagonal cell.
 ALAT       =    13.6750001907
 C/A-ratio  =     1.0798537472

  Lattice vectors:

 A1 = (  13.6750001907,   0.0000000000,   0.0000000000)
 A2 = (  -6.8375000954,  11.8428975619,   0.0000000000)
 A3 = (   0.0000000000,   0.0000000000,  14.7670001984)

Analysis of symmetry for initial positions (statically):
 Subroutine PRICEL returns:
 Original cell was already a primitive cell.

 Routine SETGRP: Setting up the symmetry group for a
 hexagonal supercell.

 Subroutine GETGRP returns: Found  1 space group operations
 (whereof  1 operations were pure point group operations)
 out of a pool of 24 trial point group operations.

The static configuration has the point symmetry C_1 .

Analysis of symmetry for dynamics (positions and initial velocities):
 Subroutine PRICEL returns:
 Original cell was already a primitive cell.

[...]

The dynamic configuration has the point symmetry C_1 .

Analysis of structural, dynamic, and magnetic symmetry:
 Subroutine PRICEL returns:
 Original cell was already a primitive cell.

 Routine SETGRP: Setting up the symmetry group for a
 hexagonal supercell.

 Subroutine GETGRP returns: Found  1 space group operations
 (whereof  1 operations were pure point group operations)
 out of a pool of 24 trial point group operations.

The magnetic configuration has the point symmetry C_1 .

 Subroutine INISYM returns: Found  1 space group operations
 (whereof  1 operations are pure point group operations),
 and found     1 'primitive' translations

 KPOINTS: Gamma points only
  k-points in reciprocal lattice
Space group operators:
 irot       det(A)        alpha          n_x          n_y          n_z        tau_x        tau_y        tau_z
    1     1.000000     0.000000     1.000000     0.000000     0.000000     0.000000     0.000000     0.000000

 Subroutine IBZKPT_HF returns following result:

 Found      1 k-points in 1st BZ
 the following      1 k-points will be used (e.g. in the exchange kernel)
 Following reciprocal coordinates:   # in IRBZ
  0.000000  0.000000  0.000000    1.00000000   1 t-inv F

 SYSTEM =  SiO2
 POSCAR =  O  C

 Startparameter for this run:
   NWRITE =      2    write-flag & timer
   PREC   = acc       normal or accurate (medium, high low for compatibility)
   ISTART =      0    job   : 0-new  1-cont  2-samecut
[...]
   -.196E+02 0.378E+02 -.547E+02   0.351E+02 -.430E+02 0.574E+02   -.139E+02 0.467E+01 -.230E+01   0.209E-01 -.500E-01 -.351E-01
   0.135E+03 -.211E+03 -.861E+01   -.146E+03 0.232E+03 0.900E+01   0.988E+01 -.184E+02 -.294E+00   -.157E-01 0.521E-01 -.523E-01
   0.154E+03 0.515E+00 -.474E+02   -.176E+03 0.134E+01 0.509E+02   0.198E+02 -.167E+01 -.300E+01   -.210E-01 0.337E-01 -.348E-01
   -.248E+03 -.299E+02 -.328E+02   0.272E+03 0.318E+02 0.353E+02   -.217E+02 -.166E+01 -.210E+01   0.343E-01 -.943E-02 -.499E-01
   -.132E+03 -.222E+03 0.280E+02   0.147E+03 0.238E+03 -.237E+02   -.132E+02 -.142E+02 -.390E+01   0.646E-02 -.291E-02 0.945E-01
   0.260E+03 0.866E+02 0.355E+02   -.280E+03 -.102E+03 -.394E+02   0.176E+02 0.133E+02 0.337E+01   -.160E-01 -.231E-01 0.695E-01
   -.153E+03 0.265E+03 0.356E+02   0.163E+03 -.288E+03 -.364E+02   -.924E+01 0.200E+02 0.608E+00   0.274E-01 0.265E-01 0.839E-01
   0.164E+03 0.227E+03 0.725E+02   -.178E+03 -.245E+03 -.804E+02   0.129E+02 0.152E+02 0.685E+01   -.243E-01 0.325E-01 0.760E-01
   0.126E+03 -.263E+03 0.467E+02   -.140E+03 0.283E+03 -.455E+02   0.118E+02 -.173E+02 -.119E+01   -.142E-01 -.346E-02 0.932E-01
   -.252E+03 -.503E+02 -.237E+02   0.274E+03 0.596E+02 0.316E+02   -.188E+02 -.820E+01 -.707E+01   0.215E-01 -.224E-01 0.825E-01
   -.135E+01 -.118E+03 -.218E+03   0.115E+01 0.124E+03 0.238E+03   0.175E+00 -.598E+01 -.176E+02   0.918E-02 0.506E-01 -.503E-01
   0.299E+02 -.833E+02 0.101E+03   -.398E+02 0.836E+02 -.117E+03   0.886E+01 -.704E-01 0.144E+02   -.546E-02 -.541E-01 -.716E-01
   0.666E+02 0.579E+02 -.172E+03   -.694E+02 -.606E+02 0.180E+03   0.249E+01 0.240E+01 -.726E+01   -.238E-01 -.364E-01 -.659E-01
   -.482E+02 -.339E+02 0.177E+03   0.502E+02 0.339E+02 -.193E+03   -.174E+01 0.597E-02 0.135E+02   0.181E-01 0.229E-01 -.562E-01
   -.658E+02 0.417E+02 -.205E+03   0.683E+02 -.435E+02 0.220E+03   -.218E+01 0.160E+01 -.134E+02   0.263E-01 -.299E-01 -.610E-01
   0.528E+02 -.395E+02 0.198E+03   -.610E+02 0.434E+02 -.217E+03   0.733E+01 -.344E+01 0.173E+02   -.150E-01 0.202E-01 -.551E-01
   0.855E+01 -.140E+03 -.968E+02   -.816E+01 0.142E+03 0.115E+03   -.336E+00 -.225E+01 -.165E+02   -.766E-02 0.191E-01 0.113E+00
   -.666E+01 0.792E+02 0.616E+02   0.178E+02 -.846E+02 -.760E+02   -.993E+01 0.482E+01 0.130E+02   -.575E-02 -.250E-01 -.763E-01
   0.160E+03 0.112E+03 -.175E+03   -.168E+03 -.119E+03 0.198E+03   0.632E+01 0.643E+01 -.198E+02   -.255E-01 0.358E-01 0.866E-01
   -.108E+03 -.565E+02 0.191E+03   0.113E+03 0.578E+02 -.211E+03   -.486E+01 -.110E+01 0.170E+02   0.242E-01 0.319E-01 -.468E-01
   -.152E+03 0.107E+03 -.932E+02   0.158E+03 -.113E+03 0.104E+03   -.530E+01 0.531E+01 -.963E+01   0.214E-01 0.260E-01 0.892E-01
   0.110E+03 -.655E+02 0.181E+03   -.115E+03 0.694E+02 -.198E+03   0.386E+01 -.343E+01 0.153E+02   -.312E-01 0.254E-01 -.472E-01
   0.169E+02 -.423E+02 -.190E+03   -.193E+02 0.424E+02 0.212E+03   0.211E+01 -.690E-01 -.192E+02   0.135E-02 -.181E-01 0.158E-01
   -.876E+01 0.213E+03 0.156E+03   0.810E+01 -.218E+03 -.167E+03   0.573E+00 0.413E+01 0.894E+01   0.818E-02 0.119E-01 0.605E-01
   -.291E+02 0.578E+00 -.258E+03   0.351E+02 0.292E+01 0.279E+03   -.521E+01 -.308E+01 -.186E+02   -.932E-02 -.611E-02 0.268E-02
   -.195E+03 -.133E+03 0.226E+03   0.204E+03 0.141E+03 -.248E+03   -.806E+01 -.759E+01 0.193E+02   0.168E-01 -.453E-01 0.654E-01
   -.503E+02 0.631E+02 -.245E+03   0.556E+02 -.665E+02 0.267E+03   -.470E+01 0.301E+01 -.195E+02   0.260E-01 -.743E-02 -.182E-02
   0.163E+03 -.190E+03 0.139E+03   -.160E+03 0.205E+03 -.147E+03   -.231E+01 -.127E+02 0.723E+01   -.112E-01 -.405E-01 0.649E-01
   0.708E+02 -.194E+03 -.326E+02   -.788E+02 0.210E+03 0.333E+02   0.713E+01 -.143E+02 -.531E+00   -.462E-02 0.435E-01 -.865E-01
   -.112E+03 0.163E+03 -.514E+02   0.117E+03 -.180E+03 0.531E+02   -.481E+01 0.158E+02 -.136E+01   0.133E-01 -.374E-01 -.950E-01
   0.112E+03 0.187E+03 0.784E+01   -.116E+03 -.208E+03 -.179E+02   0.380E+01 0.191E+02 0.910E+01   -.115E-01 -.448E-01 -.100E+00
   -.832E+02 -.208E+03 -.190E+02   0.904E+02 0.227E+03 0.190E+02   -.636E+01 -.172E+02 0.978E-01   0.176E-01 0.470E-01 -.848E-01
   -.188E+03 0.136E+02 -.179E+02   0.210E+03 -.130E+02 0.195E+02   -.198E+02 -.520E+00 -.126E+01   0.250E-01 -.103E-01 -.820E-01
   0.110E+03 -.215E+03 0.265E+02   -.119E+03 0.232E+03 -.270E+02   0.881E+01 -.149E+02 0.357E+00   -.249E-01 0.972E-02 0.446E-01
[...]
   -.113E+02 0.155E+02 -.651E+02   0.129E+02 -.150E+02 0.655E+02   -.138E+01 -.400E+00 -.344E+00   0.159E-01 -.233E-01 0.474E-02
   0.779E+02 -.713E+02 0.454E+02   -.772E+02 0.760E+02 -.462E+02   -.601E+00 -.440E+01 0.618E+00   -.838E-02 -.149E-01 0.486E-01
   -.694E+02 -.544E+02 0.606E+02   0.706E+02 0.560E+02 -.604E+02   -.108E+01 -.145E+01 -.267E+00   0.832E-02 -.166E-01 0.484E-01
   0.119E+02 -.159E+01 -.572E+02   -.116E+02 0.186E+01 0.575E+02   -.276E+00 -.275E+00 -.159E+00   -.124E-01 -.206E-01 0.723E-02
   -.168E+02 0.111E+03 0.463E+02   0.155E+02 -.112E+03 -.459E+02   0.122E+01 0.843E+00 -.384E+00   0.889E-02 0.933E-02 0.463E-01
   -.285E-01 -.403E+02 -.360E+02   -.353E+00 0.411E+02 0.356E+02   0.377E+00 -.682E+00 0.382E+00   0.322E-02 -.171E-01 0.125E-01
   -.467E+02 0.524E+02 -.483E+02   0.460E+02 -.521E+02 0.491E+02   0.699E+00 -.262E+00 -.680E+00   0.142E-01 0.122E-01 0.574E-02
   0.138E+02 -.713E+01 0.147E+01   -.141E+02 0.712E+01 0.466E+00   0.253E+00 -.398E-01 -.196E+01   0.120E-02 -.252E-01 -.393E-01
   -.187E+02 0.453E+02 -.170E+02   0.197E+02 -.449E+02 0.173E+02   -.109E+01 -.443E+00 -.378E+00   -.271E-02 -.107E-01 -.196E-01
   0.774E+02 -.520E+02 0.259E+02   -.778E+02 0.528E+02 -.264E+02   0.448E+00 -.796E+00 0.439E+00   -.481E-02 -.181E-01 0.346E-01
   0.224E+03 0.911E+02 0.175E+03   -.222E+03 -.902E+02 -.170E+03   -.139E+01 -.875E+00 -.455E+01   -.299E-01 -.304E-01 -.167E+00
   -.121E+01 0.111E+02 0.558E+03   0.855E+00 -.785E+01 -.556E+03   0.320E+00 -.302E+01 -.254E+01   0.145E-01 -.690E-01 0.523E-01
   -.420E+01 0.148E+03 0.450E+02   0.230E+01 -.144E+03 -.427E+02   0.160E+01 -.316E+01 -.190E+01   -.698E-03 -.754E-01 -.207E-01
   0.628E+02 0.128E+01 -.965E+02   -.635E+02 0.923E+00 0.967E+02   0.115E+01 -.381E+01 -.686E+00   -.177E-01 0.156E-01 0.477E-01
   0.748E+01 -.243E+02 0.238E+02   0.369E-12 0.256E-12 -.881E-12   -.596E+01 0.215E+02 -.205E+02   0.193E-02 -.142E+00 -.565E-01

 POSITION                                       TOTAL-FORCE (eV/Angst)
     11.62727      1.16670      1.74314        -0.231097      0.167787     -0.204597
     -4.63382     10.54776     12.96543         0.212729     -0.075041      0.215820
      6.79074      9.41400      1.90268         0.047157     -0.255430     -0.274338
     -0.03668      2.33120     12.76368         0.014847      0.263647      0.269860
      1.97584      1.24477      1.69647         0.230172      0.120162     -0.162087
      4.78469     10.73568     12.97866        -0.353739      0.136462      0.122848
      4.67975      5.06784      6.70666        -0.185745      0.129818     -0.251705
      8.84738      2.77873      3.21369         0.341452      0.149107      0.103931
      6.77393      1.67847      6.94472        -0.001413     -0.310940     -0.355633
      6.80341      6.40370      3.02799         0.000486      0.211638      0.234533
      8.91958      5.07220      6.77012         0.188197      0.136820     -0.267757
      4.74500      2.80124      2.69507        -0.227159     -0.099031      0.348059
     -2.15397      9.20202     11.42472        -0.122038      0.021508     -0.075435
      1.91250      6.76576      7.74560         0.242296     -0.139104      0.279399
      0.10685      5.36032     11.39953        -0.009701     -0.178949     -0.108250
      0.04635     10.10124      7.82067         0.295583      0.230874      0.245311
      2.12812      8.97800     11.88084         0.119276      0.129011     -0.367540
     -2.12644      6.64885      7.86659        -0.182380     -0.135936      0.297812
     11.20204      3.75652      2.35427        -0.153357     -0.338017      0.032660
     -4.27821      7.93880     12.41805         0.140772      0.355903     -0.119701
      4.66484      7.97376      2.52719         0.447961     -0.104091     -0.062762
      2.12017      3.76472     12.07902        -0.392598      0.072375      0.057231
      4.25526      0.18639      2.61330        -0.104329      0.372273     -0.198025
      2.36435     11.62823     12.20362         0.170111     -0.349066      0.060466
     -2.28840     11.68787     12.37028        -0.229822     -0.314896     -0.027262
      9.23831      0.06155      2.38441         0.315410      0.242055     -0.232943
      4.59692      7.96975     12.00334        -0.441262      0.117038     -0.069017
      2.34099      3.84625      2.30668         0.202061     -0.371671      0.000241
     -2.04475      4.01703     12.28549         0.395180     -0.030051     -0.051773
      8.93054      7.94156      2.51228        -0.436510     -0.042038     -0.026397
      4.46305      7.60263      7.42311        -0.246238     -0.293855     -0.089699
     -2.12069     11.77948      7.01156         0.361719      0.321623      0.008908
     11.29029      4.01866      7.35109        -0.196335      0.393300     -0.006595
      2.22117      4.17263      7.09218         0.263191      0.302743      0.112158
      9.09562      7.63485      7.44128         0.227503     -0.345021     -0.037771
      8.83925      0.10899      7.60232        -0.372835     -0.133395     -0.158997
     -0.04852      2.89168      1.91191         0.007192     -0.123054     -0.346114
      7.00094      8.88575     12.58375         0.301867      0.062319      0.396665
      4.40577     10.41404      1.62510         0.059530      0.040263     -0.145473
      2.40083      1.30376     12.84041        -0.035181     -0.007358      0.281466
     -4.50387     10.47014      1.88675        -0.044448      0.043611     -0.262772
     11.13078      1.48287     12.67446         0.153425     -0.053671      0.350458
      6.79187      6.61706      6.87645        -0.000960     -0.057247     -0.331094
      6.73865      1.03363      2.57822        -0.281526      0.153147      0.377533
      4.24599      2.50119      6.88899         0.131910      0.127118     -0.397673
      9.24595      5.38002      2.90338        -0.104178     -0.030309      0.343644
      9.29754      2.47244      6.68441        -0.106866      0.111083     -0.217843
      4.37193      5.40461      2.86699         0.086934     -0.069134      0.309125
      0.01286     10.57210     11.91211         0.016800     -0.004639     -0.387791
     -0.05676      5.07856      7.97565         0.006212      0.111565      0.178309
     -2.12772      6.60014     11.83114        -0.091652     -0.044550     -0.378274
      2.53822      9.34686      7.67318        -0.182078     -0.163718      0.375803
      2.52074      6.34560     11.80453        -0.115908      0.034562     -0.397414
     -2.54028      9.20948      8.06450        -0.054010     -0.339754      0.153151
     11.90324      3.06663     14.68174         0.148806     -0.288647      0.010603
      8.54114      8.67369      0.01899        -0.090470      0.317211      0.025774
      5.17650      8.47633     14.74104         0.091853      0.388011      0.297032
      1.67232      3.15877     14.62751        -0.134134     -0.353769      0.019487
      3.66284      0.01322      0.04363        -0.401603     -0.005411      0.001807
      5.00951      7.00220      4.91336         0.183491     -0.307206      0.001513
[...]
      1.55646     10.54003      8.23232        -0.058607      0.023816     -0.012985
      3.11722      7.79200     11.36463         0.170581      0.029158      0.129163
     -3.23962      7.81773      8.32537         0.002823      0.063892     -0.040573
      3.06157      7.89902      8.15438         0.052489      0.031599      0.018486
     -3.03554      7.86133     11.37997        -0.014536     -0.034835      0.078647
     -1.65139      5.11785      8.26088        -0.012020     -0.023636     -0.008114
      1.55566     10.45129     11.43677         0.017379      0.015296      0.027445
      1.68996      5.07458     11.23585         0.044081      0.016966      0.049891
      5.33223      9.11399     13.15104         0.038172     -0.074358     -0.097170
      8.32276      1.14067      3.40279        -0.041559     -0.065717     -0.045622
     -1.61057     10.66839      8.21183         0.017111     -0.003950     -0.021847
      7.52625      0.33646      0.52226        -0.007846     -0.017688     -0.008677
     -0.23035      7.97026      7.07675         0.004016      0.007164     -0.033438
      6.54197      6.93727     11.43707        -0.057067      0.191912      0.045035
      7.34392      4.86259     10.73955         0.487108     -1.759085     -0.453687
    total drift:                               -0.001084      0.001971      0.009851

  FREE ENERGIE OF THE ION-ELECTRON SYSTEM (eV)
  free  energy   TOTEN  =     -1198.87669800 eV

  energy  without entropy=    -1198.87669800  energy(sigma->0) =    -1198.87669800

 stress matrix after NEB project (eV)
      0.00000      0.00000      0.00000
      0.00000      0.00000      0.00000
      0.00000      0.00000      0.00000
  FORCES: max atom, RMS     1.880821    0.430352
  FORCE total and by dimension    4.594903    1.759085
  Stress total and by dimension    0.000000    0.000000

 total charge

[...]

 magnetization (x)

# of ion       s       p       d       tot
    1        0.000   0.000   0.000   0.000
    2       -0.000  -0.000   0.000  -0.000
    3        0.000   0.000   0.000   0.000
    4       -0.000  -0.000   0.000  -0.000
    5        0.000   0.000   0.000   0.000
    6       -0.000  -0.000   0.000  -0.000
    7        0.000   0.000   0.000   0.000
    8        0.000   0.000   0.000   0.000
    9        0.000   0.000   0.000   0.000
   10        0.000   0.000   0.000   0.000
   11        0.000   0.000   0.000   0.000
   12        0.000   0.000   0.000   0.000
   13       -0.000  -0.000   0.000  -0.000
   14        0.000  -0.000   0.000  -0.000
   15        0.000  -0.000   0.000  -0.000
   16        0.000  -0.000   0.000   0.000
   17        0.000  -0.000   0.000  -0.000
   18        0.000  -0.000   0.000  -0.000
   19        0.000   0.000   0.000   0.000
   20        0.000  -0.000   0.000  -0.000
   21        0.000   0.000   0.000   0.000
   22       -0.000  -0.000   0.000  -0.000
   23        0.000   0.000   0.000   0.000
   24       -0.000  -0.000   0.000  -0.000
   25       -0.000  -0.000   0.000  -0.000
   26        0.000   0.000   0.000   0.000
   27       -0.000  -0.000   0.000  -0.000
   28        0.000   0.000   0.000   0.000
   29       -0.000  -0.000   0.000  -0.000
   30        0.000   0.000   0.000   0.000
   31        0.000   0.000   0.000   0.000
   32       -0.000   0.000   0.000   0.000
   33        0.000   0.000   0.000   0.000
   34        0.000   0.000   0.000   0.000
   35        0.000   0.000   0.000   0.000
   36       -0.000  -0.000   0.000  -0.000
   37        0.000   0.000   0.000   0.000
   38        0.000  -0.000   0.000  -0.000
   39        0.000   0.000   0.000   0.000
   40       -0.000  -0.000   0.000  -0.000
   41        0.000   0.000   0.000   0.000
   42       -0.000  -0.000   0.000  -0.000
   43        0.000   0.000   0.000   0.000
   44        0.000   0.000   0.000   0.000
   45       -0.000   0.000   0.000   0.000
   46       -0.000   0.000   0.000   0.000
   47       -0.000   0.000   0.000   0.000
   48        0.000   0.000   0.000   0.000
   49       -0.000  -0.000   0.000  -0.000
   50        0.000  -0.000   0.000   0.000
   51       -0.000  -0.000   0.000  -0.000
   52        0.000  -0.000   0.000   0.000
   53        0.000  -0.000   0.000  -0.000
   54       -0.000  -0.000   0.000  -0.000
   55       -0.000   0.000   0.000   0.000
   56        0.000   0.000   0.000   0.000
   57       -0.000   0.000   0.000   0.000
   58        0.000   0.000   0.000   0.000
   59        0.000   0.000   0.000   0.000
   60        0.000   0.000   0.000   0.000
[...]
  100        0.000   0.000   0.000   0.000
  101        0.000   0.000   0.000   0.000
  102        0.000   0.000   0.000   0.000
  103        0.000   0.000   0.000   0.000
  104        0.000   0.000   0.000   0.000
  105        0.000   0.000   0.000   0.000
  106        0.000   0.000   0.000   0.000
  107        0.000   0.000   0.000   0.000
  108        0.000   0.000   0.000   0.000
  109       -0.000  -0.000   0.000  -0.000
  110        0.000   0.000   0.000   0.000
  111       -0.000  -0.000   0.000   0.000
  112       -0.000  -0.000   0.000   0.000
  113        0.000   0.000  -0.000  -0.000
  114       -0.000   0.000   0.000   0.000
tot          0.000   0.000   0.000   0.000