 vasp.5.4.4.18Apr17-6-g9f103f2a35 (build Dec 31 2018 11:41:54) complex

 executed on             LinuxIFC date 2022.07.06  12:17:41

 INCAR:
 POTCAR:   PAW_PBE O 08Apr2002
 POTCAR:   PAW_PBE Si 05Jan2001
 POTCAR:   PAW_PBE Al 04Jan2001
 POTCAR:   PAW_PBE Ag 06Sep2000
 POTCAR:    PAW_PBE S 17Jan2003
 POTCAR:   PAW_PBE H 15Jun2001
 POTCAR:   PAW_PBE O 08Apr2002
   VRHFIN =O: s2p4

   TITEL  = PAW_PBE O 08Apr2002
   POMASS =   16.000; ZVAL   =    6.000    mass and valenz
   ENMAX  =  400.000; ENMIN  =  300.000 eV
   QCUT   =   -5.520; QGAM   =   11.041    optimization parameters

   Description
     l     E      TYP  RCUT    TYP  RCUT
     0   .000     23  1.200
     0  -.700     23  1.200
     1   .000     23  1.520
     1   .600     23  1.520
     2   .000      7  1.500

 POTCAR:   PAW_PBE Si 05Jan2001
   VRHFIN =Si: s2p2

   TITEL  = PAW_PBE Si 05Jan2001
   POMASS =   28.085; ZVAL   =    4.000    mass and valenz
   ENMAX  =  245.345; ENMIN  =  184.009 eV
   QCUT   =   -4.246; QGAM   =    8.493    optimization parameters

[...]

 POTCAR:   PAW_PBE Al 04Jan2001
   VRHFIN =Al: s2p1

[...]

 POTCAR:   PAW_PBE Ag 06Sep2000
   VRHFIN =Ag : s1 d10

   TITEL  = PAW_PBE Ag 06Sep2000
   POMASS =  107.868; ZVAL   =   11.000    mass and valenz
   ENMAX  =  249.846; ENMIN  =  187.385 eV
   QCUT   =   -4.285; QGAM   =    8.570    optimization parameters

[...]

 POTCAR:    PAW_PBE S 17Jan2003
   VRHFIN =S : s2p4

   TITEL  = PAW_PBE S 17Jan2003
   POMASS =   32.066; ZVAL   =    6.000    mass and valenz
   ENMAX  =  280.000; ENMIN  =  194.016 eV
   QCUT   =   -4.360; QGAM   =    8.721    optimization parameters

[...]

 POTCAR:   PAW_PBE H 15Jun2001
   VRHFIN =H: ultrasoft test

   TITEL  = PAW_PBE H 15Jun2001
   POMASS =    1.000; ZVAL   =    1.000    mass and valenz
   ENMAX  =  250.000; ENMIN  =  200.000 eV
   QCUT   =   -5.749; QGAM   =   11.498    optimization parameters

   Description
     l     E      TYP  RCUT    TYP  RCUT
     0   .000     23  1.100
     0   .500     23  1.100
     1  -.300     23  1.100

 Optimization of the real space projectors (new method)

 maximal supplied QI-value         = 24.76
 optimisation between [QCUT,QGAM] = [ 10.15, 20.30] = [ 28.85,115.39] Ry
 Optimized for a Real-space Cutoff    1.51 Angstroem

   l    n(q)    QCUT    max X(q) W(low)/X(q) W(high)/X(q)  e(spline)
   0      9    10.150     4.192    0.32E-04    0.13E-04    0.13E-06
   0      9    10.150     8.473    0.18E-03    0.20E-03    0.43E-06
   1      9    10.150     2.474    0.32E-04    0.33E-04    0.64E-07
   1      9    10.150     3.912    0.13E-03    0.16E-03    0.33E-06
 Optimization of the real space projectors (new method)

[...]

   l    n(q)    QCUT    max X(q) W(low)/X(q) W(high)/X(q)  e(spline)
   0      9    10.119     5.487    0.15E-04    0.47E-05    0.66E-08
   0      9    10.119    85.627    0.51E-04    0.92E-04    0.63E-07
   1      8    10.119     3.530    0.37E-05    0.76E-05    0.28E-07
   1      8    10.119    42.714    0.16E-03    0.16E-03    0.23E-06
 Optimization of the real space projectors (new method)

 maximal supplied QI-value         = 34.20
 optimisation between [QCUT,QGAM] = [  9.92, 20.18] = [ 27.55,114.04] Ry
 Optimized for a Real-space Cutoff    1.34 Angstroem

   l    n(q)    QCUT    max X(q) W(low)/X(q) W(high)/X(q)  e(spline)
   0      8     9.919     4.436    0.31E-04    0.59E-04    0.66E-07
   0      8     9.919    16.131    0.16E-03    0.20E-03    0.35E-06
   1      8     9.919     4.654    0.19E-03    0.46E-03    0.40E-06
 PAW_PBE O 08Apr2002                    :
 PAW_PBE Si 05Jan2001                   :
 PAW_PBE Al 04Jan2001                   :
 PAW_PBE Ag 06Sep2000                   :
  PAW_PBE S 17Jan2003                   :
 PAW_PBE H 15Jun2001                    :

 POSCAR: O  C
  positions in direct lattice
  velocities in cartesian coordinates
 exchange correlation table for  LEXCH =        8
   RHO(1)=    0.500       N(1)  =     2000
   RHO(2)=  100.500       N(2)  =     4000

 VTST: version 3.2, (02/03/18)

 CHAIN: initializing optimizer

 OPT: Using VASP Dynamics algorithm
 CHAIN: Read ICHAIN            0

 POSCAR: O  C
  positions in direct lattice
  velocities in cartesian coordinates

 ion  position               nearest neighbor table
   1  0.899  0.099  0.119-  73 1.63  80 1.63
   2  0.101  0.887  0.881-  79 1.62  74 1.63
   3  0.892  0.792  0.126-  83 1.61  75 1.63
   4  0.095  0.198  0.868-  76 1.63  82 1.63
   5  0.196  0.105  0.118-  77 1.63  81 1.63
   6  0.802  0.903  0.880-  78 1.59 106 1.73
   7  0.552  0.426  0.458-  84 1.62  90 1.63
   8  0.763  0.236  0.220-  89 1.59 107 1.73
   9  0.567  0.143  0.472-  94 1.65  85 1.65
  10  0.766  0.538  0.205-  93 1.63  86 1.63
  11  0.864  0.425  0.466-  92 1.63  87 1.64
  12  0.464  0.237  0.185-  88 1.63  91 1.64
  13  0.232  0.775  0.774- 102 1.61  95 1.64
  14  0.424  0.569  0.525-  96 1.66 101 1.67 110 2.55
  15  0.229  0.446  0.772-  97 1.61 105 1.62
  16  0.427  0.850  0.533-  98 1.63 108 1.79 110 2.27
  17  0.530  0.757  0.806-  99 1.63 104 1.64
  18  0.124  0.560  0.533- 103 1.65 100 1.68 110 2.44
  19  0.977  0.317  0.163-  73 1.61  89 1.63
  20  0.023  0.669  0.843- 102 1.61  74 1.63
  21  0.678  0.674  0.177-  93 1.61  75 1.63
  22  0.313  0.315  0.820- 105 1.62  76 1.63
  23  0.318  0.016  0.178-  77 1.61  91 1.63
  24  0.664  0.980  0.828- 104 1.62  78 1.63
  25  0.321  0.984  0.839-  79 1.62  95 1.63
  26  0.678  0.007  0.163-  80 1.60 107 1.74 109 2.52
  27  0.668  0.671  0.816-  99 1.61 106 1.77 111 2.28
  28  0.332  0.325  0.159-  81 1.62  88 1.62
  29  0.015  0.336  0.832-  97 1.61  82 1.62
  30  0.987  0.673  0.178-  86 1.62  83 1.62
  31  0.646  0.641  0.506- 101 1.61  84 1.62
  32  0.343  0.993  0.476-  85 1.59 108 1.71
  33  0.995  0.337  0.499- 103 1.61  87 1.63
  34  0.334  0.349  0.483-  96 1.61  90 1.63
  35  0.985  0.642  0.507- 100 1.62  92 1.62
  36  0.648  0.007  0.516-  98 1.61  94 1.64
  37  0.118  0.245  0.130-  81 1.61  73 1.62
  38  0.882  0.742  0.861-  74 1.61 106 1.76 111 2.49
  39  0.762  0.880  0.117-  80 1.60  75 1.61
  40  0.226  0.107  0.872-  76 1.61  79 1.62
  41  0.110  0.884  0.132-  77 1.61  83 1.61
  42  0.875  0.122  0.862-  82 1.61  78 1.63
  43  0.771  0.551  0.475-  84 1.62  92 1.62
  44  0.536  0.088  0.176-  91 1.62 107 1.79 109 2.32
  45  0.414  0.209  0.469-  90 1.60  85 1.64
  46  0.904  0.455  0.198-  86 1.61  89 1.63
  47  0.784  0.206  0.455-  87 1.60  94 1.63
  48  0.546  0.457  0.199-  88 1.61  93 1.62
  49  0.448  0.896  0.808- 104 1.62  95 1.64
  50  0.209  0.428  0.545-  96 1.62 103 1.62
  51  0.123  0.555  0.804-  97 1.61 102 1.62
  52  0.578  0.787  0.522- 101 1.61  98 1.64
  53  0.447  0.535  0.802- 105 1.62  99 1.63
  54  0.201  0.777  0.548- 100 1.58 108 1.74
  55  0.998  0.261  0.996-  82 1.62  73 1.63
  56  0.996  0.728  0.006-  74 1.63  83 1.63
  57  0.726  0.714  0.002-  75 1.60 106 1.73
  58  0.256  0.266  0.992-  76 1.63  81 1.63
  59  0.265  0.999  0.005-  79 1.63  77 1.64
  60  0.666  0.589  0.337-  84 1.61  93 1.63
  61  0.631  0.051  0.342-  94 1.60 107 1.72
  62  0.440  0.109  0.326-  91 1.61  85 1.63
  63  0.913  0.583  0.338-  92 1.61  86 1.63
  64  0.938  0.346  0.332-  87 1.62  89 1.64
  65  0.403  0.322  0.324-  90 1.62  88 1.63
  66  0.359  0.952  0.668-  95 1.59 108 1.74
  67  0.355  0.409  0.656-  96 1.62 105 1.64
  68  0.056  0.409  0.666- 103 1.62  97 1.63
  69  0.575  0.897  0.669- 104 1.61  98 1.62
  70  0.566  0.659  0.663- 101 1.61  99 1.63
  71  0.052  0.636  0.672- 100 1.64 102 1.64
  72  0.731  0.008  0.995-  78 1.66  80 1.67 109 2.51
  73  0.996  0.230  0.103-  19 1.61  37 1.62  55 1.63   1 1.63  89 3.10  81 3.10  82 3.13  80 3.13

  74  1.000  0.758  0.899-  38 1.61  56 1.63  20 1.63   2 1.63 102 3.07  83 3.11 106 3.17
  75  0.764  0.764  0.102-  57 1.60  39 1.61  21 1.63   3 1.63  93 3.01 106 3.08  83 3.13
  76  0.222  0.221  0.889-  40 1.61  58 1.63   4 1.63  22 1.63 105 3.06  81 3.11  82 3.13
  77  0.222  0.002  0.108-  41 1.61  23 1.61   5 1.63  59 1.64  91 3.05  79 3.08  83 3.14
  78  0.770  1.000  0.891-   6 1.59  42 1.63  24 1.63  72 1.66 104 3.07  82 3.10  80 3.11 106 3.22

[...]

 101  0.555  0.665  0.555-  70 1.61  31 1.61  52 1.61  14 1.67  98 3.04  84 3.07  96 3.10
 102  0.110  0.662  0.773-  13 1.61  20 1.61  51 1.62  71 1.64  97 3.07  74 3.07 100 3.07
 103  0.094  0.431  0.561-  33 1.61  50 1.62  68 1.62  18 1.65  87 3.02  97 3.07 100 3.12
 104  0.554  0.882  0.776-  69 1.61  24 1.62  49 1.62  17 1.64  78 3.07  95 3.08  99 3.08
 105  0.336  0.426  0.763-  22 1.62  15 1.62  53 1.62  67 1.64  76 3.06  99 3.07  96 3.09
 106  0.771  0.764  0.894-  57 1.73   6 1.73  38 1.76  27 1.77  75 3.08 111 3.10  99 3.14  74 3.17
                            78 3.22
 107  0.656  0.097  0.232-  61 1.72   8 1.73  26 1.74  44 1.79  91 3.07 109 3.10  94 3.12  80 3.17
                            89 3.23
 108  0.331  0.899  0.558-  32 1.71  54 1.74  66 1.74  16 1.79  85 3.08  95 3.11  98 3.17 110 3.25

 109  0.561  0.022  0.038-  44 2.32  72 2.51  26 2.52 107 3.10  80 3.17
 110  0.319  0.671  0.481-  16 2.27  18 2.44  14 2.55 108 3.25 100 3.27  98 3.33
 111  0.753  0.572  0.771-  27 2.28 112 2.39  38 2.49 106 3.10
 112  0.756  0.412  0.709- 114 1.36 113 1.36 111 2.39
 113  0.869  0.467  0.690- 112 1.36
 114  0.730  0.420  0.622- 112 1.36

  LATTYP: Found a hexagonal cell.
 ALAT       =    13.6750001907
 C/A-ratio  =     1.0798537472

  Lattice vectors:

 A1 = (  13.6750001907,   0.0000000000,   0.0000000000)
 A2 = (  -6.8375000954,  11.8428975619,   0.0000000000)
 A3 = (   0.0000000000,   0.0000000000,  14.7670001984)

Analysis of symmetry for initial positions (statically):
 Subroutine PRICEL returns:
 Original cell was already a primitive cell.

 Routine SETGRP: Setting up the symmetry group for a
 hexagonal supercell.

 Subroutine GETGRP returns: Found  1 space group operations
 (whereof  1 operations were pure point group operations)
 out of a pool of 24 trial point group operations.

The static configuration has the point symmetry C_1 .

Analysis of symmetry for dynamics (positions and initial velocities):
 Subroutine PRICEL returns:
 Original cell was already a primitive cell.

[...]

The dynamic configuration has the point symmetry C_1 .

Analysis of structural, dynamic, and magnetic symmetry:
 Subroutine PRICEL returns:
 Original cell was already a primitive cell.

 Routine SETGRP: Setting up the symmetry group for a
 hexagonal supercell.

 Subroutine GETGRP returns: Found  1 space group operations
 (whereof  1 operations were pure point group operations)
 out of a pool of 24 trial point group operations.

The magnetic configuration has the point symmetry C_1 .

 Subroutine INISYM returns: Found  1 space group operations
 (whereof  1 operations are pure point group operations),
 and found     1 'primitive' translations

 KPOINTS: Gamma points only
  k-points in reciprocal lattice
Space group operators:
 irot       det(A)        alpha          n_x          n_y          n_z        tau_x        tau_y        tau_z
    1     1.000000     0.000000     1.000000     0.000000     0.000000     0.000000     0.000000     0.000000

 Subroutine IBZKPT_HF returns following result:

 Found      1 k-points in 1st BZ
[...]
   -.452E+02 0.440E+02 -.555E+02   0.616E+02 -.489E+02 0.581E+02   -.147E+02 0.445E+01 -.222E+01   0.751E-03 -.585E-02 -.824E-02
   0.132E+03 -.211E+03 -.414E+01   -.143E+03 0.232E+03 0.453E+01   0.102E+02 -.185E+02 -.340E+00   -.234E-02 0.749E-02 -.622E-02
   0.195E+03 0.907E+01 -.345E+02   -.218E+03 -.800E+01 0.369E+02   0.204E+02 -.947E+00 -.207E+01   -.236E-02 0.499E-02 -.873E-02
   -.239E+03 -.399E+02 -.435E+02   0.263E+03 0.440E+02 0.486E+02   -.211E+02 -.363E+01 -.452E+01   0.483E-02 -.338E-02 -.468E-02
   -.143E+03 -.217E+03 0.187E+02   0.157E+03 0.234E+03 -.144E+02   -.130E+02 -.149E+02 -.380E+01   -.265E-03 -.847E-03 0.149E-01
   0.249E+03 0.811E+02 0.279E+02   -.268E+03 -.966E+02 -.321E+02   0.168E+02 0.137E+02 0.367E+01   -.560E-03 -.311E-02 0.140E-01
   -.142E+03 0.271E+03 0.267E+02   0.154E+03 -.293E+03 -.279E+02   -.102E+02 0.201E+02 0.103E+01   0.277E-02 0.379E-02 0.145E-01
   0.158E+03 0.234E+03 0.650E+02   -.173E+03 -.251E+03 -.727E+02   0.137E+02 0.156E+02 0.684E+01   -.316E-02 0.433E-02 0.140E-01
   0.135E+03 -.255E+03 0.365E+02   -.148E+03 0.275E+03 -.354E+02   0.116E+02 -.177E+02 -.101E+01   0.124E-03 -.120E-02 0.150E-01
   -.243E+03 -.628E+02 -.348E+02   0.264E+03 0.716E+02 0.424E+02   -.183E+02 -.773E+01 -.675E+01   0.148E-02 -.209E-02 0.142E-01
   0.124E+01 -.119E+03 -.207E+03   -.140E+01 0.126E+03 0.227E+03   0.149E+00 -.608E+01 -.170E+02   0.402E-04 0.839E-02 -.801E-02
   0.291E+02 -.210E+02 0.994E+02   -.398E+02 0.170E+02 -.115E+03   0.947E+01 0.366E+01 0.140E+02   0.143E-04 -.649E-02 -.134E-01
   0.578E+02 0.506E+02 -.179E+03   -.593E+02 -.528E+02 0.190E+03   0.132E+01 0.192E+01 -.984E+01   -.370E-02 -.452E-02 -.948E-02
   -.522E+02 -.326E+02 0.185E+03   0.535E+02 0.320E+02 -.200E+03   -.122E+01 0.555E+00 0.135E+02   0.193E-02 0.337E-02 -.128E-01
   -.583E+02 0.387E+02 -.205E+03   0.595E+02 -.400E+02 0.221E+03   -.112E+01 0.115E+01 -.142E+02   0.383E-02 -.463E-02 -.860E-02
   0.730E+02 -.517E+02 0.203E+03   -.810E+02 0.551E+02 -.221E+03   0.715E+01 -.294E+01 0.165E+02   -.201E-02 0.391E-02 -.124E-01
   0.692E+01 -.103E+03 -.132E+03   -.678E+01 0.103E+03 0.152E+03   -.135E+00 -.386E+00 -.180E+02   0.178E-04 0.133E-02 0.175E-01
   -.899E+01 0.665E+02 0.743E+02   0.201E+02 -.716E+02 -.892E+02   -.993E+01 0.456E+01 0.134E+02   0.628E-04 -.211E-02 -.656E-02
   0.144E+03 0.107E+03 -.194E+03   -.151E+03 -.114E+03 0.216E+03   0.617E+01 0.664E+01 -.198E+02   -.212E-02 0.379E-02 0.157E-01
   -.110E+03 -.575E+02 0.201E+03   0.116E+03 0.595E+02 -.221E+03   -.584E+01 -.183E+01 0.177E+02   0.387E-02 0.332E-02 -.365E-02
   -.143E+03 0.102E+03 -.116E+03   0.150E+03 -.109E+03 0.127E+03   -.584E+01 0.600E+01 -.951E+01   0.221E-02 0.342E-02 0.158E-01
   0.111E+03 -.679E+02 0.180E+03   -.117E+03 0.724E+02 -.197E+03   0.476E+01 -.399E+01 0.146E+02   -.386E-02 0.308E-02 -.337E-02
   0.159E+02 -.738E+02 -.183E+03   -.181E+02 0.758E+02 0.205E+03   0.194E+01 -.176E+01 -.191E+02   -.512E-04 -.274E-02 -.398E-02
   -.573E+01 0.214E+03 0.143E+03   0.536E+01 -.218E+03 -.151E+03   0.334E+00 0.388E+01 0.771E+01   -.137E-04 0.189E-02 0.108E-01
   -.127E+02 0.923E+01 -.261E+03   0.191E+02 -.534E+01 0.282E+03   -.571E+01 -.343E+01 -.189E+02   0.491E-05 -.116E-02 -.356E-02
   -.198E+03 -.137E+03 0.219E+03   0.207E+03 0.145E+03 -.241E+03   -.812E+01 -.753E+01 0.194E+02   0.243E-03 -.492E-02 0.117E-01
   -.559E+02 0.641E+02 -.247E+03   0.600E+02 -.666E+02 0.269E+03   -.364E+01 0.219E+01 -.198E+02   0.826E-03 -.913E-03 -.402E-02
   0.169E+03 -.192E+03 0.134E+03   -.167E+03 0.207E+03 -.142E+03   -.183E+01 -.132E+02 0.747E+01   -.285E-03 -.496E-02 0.111E-01
   0.902E+02 -.201E+03 -.192E+02   -.990E+02 0.218E+03 0.197E+02   0.782E+01 -.152E+02 -.402E+00   -.859E-03 0.714E-02 -.153E-01
   -.124E+03 0.180E+03 -.396E+02   0.133E+03 -.198E+03 0.408E+02   -.834E+01 0.161E+02 -.101E+01   0.288E-02 -.576E-02 -.155E-01
   0.118E+03 0.194E+03 0.175E+02   -.126E+03 -.215E+03 -.280E+02   0.702E+01 0.186E+02 0.939E+01   -.228E-02 -.577E-02 -.158E-01
   -.929E+02 -.207E+03 -.962E+01   0.101E+03 0.227E+03 0.932E+01   -.721E+01 -.172E+02 0.274E+00   0.877E-03 0.707E-02 -.152E-01
   -.192E+03 0.939E+01 -.816E+01   0.214E+03 -.884E+01 0.925E+01   -.197E+02 -.490E+00 -.947E+00   0.289E-02 -.142E-02 -.149E-01
   0.905E+02 -.209E+03 0.172E+02   -.974E+02 0.226E+03 -.180E+02   0.610E+01 -.146E+02 0.706E+00   -.284E-02 -.448E-04 0.103E-01
[...]
   -.753E+02 -.533E+02 0.560E+02   0.764E+02 0.548E+02 -.554E+02   -.932E+00 -.145E+01 -.594E+00   -.112E-03 -.188E-02 0.751E-02
   0.239E+02 0.400E+01 -.596E+02   -.238E+02 -.367E+01 0.604E+02   -.644E-01 -.360E+00 -.705E+00   -.173E-03 -.297E-02 -.164E-02
   -.900E+01 0.113E+03 0.405E+02   0.782E+01 -.114E+03 -.400E+02   0.111E+01 0.915E+00 -.460E+00   0.834E-03 0.132E-02 0.745E-02
   0.834E+00 -.528E+02 -.345E+02   -.102E+01 0.534E+02 0.343E+02   0.178E+00 -.545E+00 0.227E+00   -.298E-03 -.207E-02 -.153E-02
   -.541E+02 0.552E+02 -.483E+02   0.536E+02 -.549E+02 0.491E+02   0.546E+00 -.354E+00 -.762E+00   0.564E-03 0.170E-02 -.132E-02
   0.620E+01 0.198E+01 0.535E+01   -.617E+01 -.212E+01 -.374E+01   -.267E-01 0.909E-01 -.163E+01   -.278E-03 -.295E-02 -.710E-02
   -.177E+02 0.404E+02 -.144E+02   0.188E+02 -.402E+02 0.147E+02   -.108E+01 -.339E+00 -.296E+00   -.245E-03 -.727E-03 -.341E-03
   0.768E+02 -.563E+02 0.220E+02   -.771E+02 0.572E+02 -.225E+02   0.332E+00 -.810E+00 0.397E+00   -.199E-03 -.226E-02 0.559E-02
   0.225E+03 0.801E+02 0.196E+03   -.223E+03 -.790E+02 -.191E+03   -.152E+01 -.103E+01 -.454E+01   -.222E-02 -.381E-02 -.260E-01
   0.272E+01 0.782E+01 0.551E+03   -.303E+01 -.455E+01 -.548E+03   0.289E+00 -.305E+01 -.258E+01   0.465E-03 -.797E-02 0.153E-01
   -.543E+02 0.250E+03 0.140E+02   0.541E+02 -.250E+03 -.142E+02   -.118E-01 0.659E+00 0.338E+00   0.107E-02 -.859E-02 -.709E-02
   0.319E+02 0.223E+03 -.108E+03   -.317E+02 -.229E+03 0.111E+03   0.114E-02 0.497E+01 -.291E+01   -.980E-03 0.127E-02 0.503E-02
   -.130E+02 0.128E+02 -.772E+01   0.166E+02 -.107E+02 0.685E+01   -.375E+01 -.209E+01 0.911E+00   -.502E-03 -.901E-04 0.104E-02
   0.184E+02 0.215E+02 0.121E+02   -.197E+02 -.213E+02 -.162E+02   0.133E+01 -.250E+00 0.420E+01   0.804E-04 0.441E-03 0.253E-02
   -.766E+00 0.964E+01 0.293E+02   0.714E-12 -.913E-12 -.888E-13   0.756E+00 -.730E+01 -.246E+02   0.339E-02 -.141E-01 -.251E-01

 POSITION                                       TOTAL-FORCE (eV/Angst)
     11.61303      1.17281      1.75383        -0.226764      0.162117     -0.199842
     -4.67974     10.50809     13.01288         0.210946     -0.084023      0.212262
      6.77968      9.37945      1.86336         0.044569     -0.242892     -0.226710
     -0.05488      2.34573     12.81490         0.015817      0.243870      0.253294
      1.96199      1.24694      1.73626         0.227578      0.116833     -0.173989
      4.79792     10.69373     13.00165        -0.355925      0.123641      0.124166
      4.63532      5.04697      6.76762        -0.165845      0.130903     -0.244562
      8.82553      2.79514      3.25309         0.345407      0.148145      0.096436
      6.76895      1.69415      6.96476        -0.001762     -0.325216     -0.348142
      6.79078      6.37251      3.02629         0.000203      0.227688      0.267289
      8.91104      5.02981      6.88104         0.178926      0.146076     -0.290601
      4.72723      2.80934      2.72463        -0.230939     -0.100379      0.343928
     -2.12735      9.17483     11.43176        -0.142778      0.031755     -0.050109
      1.91161      6.73727      7.75895         0.238564     -0.133666      0.303887
      0.08318      5.28109     11.39719        -0.002231     -0.140738     -0.083912
      0.02866     10.06657      7.86427         0.300340      0.231597      0.242587
      2.07209      8.96206     11.90516         0.153839      0.120928     -0.350743
     -2.13657      6.63451      7.86988        -0.177647     -0.137022      0.316831
     11.19740      3.75029      2.40724        -0.158290     -0.326417      0.009554
     -4.26052      7.92571     12.45113         0.126909      0.348769     -0.103156
      4.66616      7.98478      2.62070         0.432561     -0.122006     -0.102838
      2.12051      3.73617     12.10261        -0.398010      0.083210      0.059990
      4.24277      0.18900      2.63506        -0.110242      0.363132     -0.198819
      2.37508     11.60578     12.23115         0.161336     -0.357484      0.062500
     -2.33770     11.65177     12.39671        -0.218724     -0.310004     -0.026027
      9.22195      0.08044      2.40361         0.316289      0.221362     -0.234156
      4.54846      7.94916     12.04333        -0.423805      0.108456     -0.066935
      2.32008      3.84962      2.34318         0.203638     -0.371525     -0.005670
     -2.09263      3.98134     12.29039         0.411048     -0.015944     -0.034185
      8.90419      7.96597      2.62684        -0.423246     -0.071810     -0.086372
      4.45607      7.58981      7.47061        -0.249973     -0.302385     -0.073731
     -2.10164     11.76095      7.02453         0.343670      0.322354      0.019998
     11.30371      3.99477      7.37316        -0.205603      0.402583      0.010238
      2.18524      4.13277      7.12686         0.270345      0.318612      0.123735
      9.07845      7.60724      7.48260         0.224919     -0.351539     -0.028391
      8.80868      0.08242      7.61511        -0.360276     -0.136206     -0.140406
     -0.06257      2.89819      1.91732         0.009194     -0.123291     -0.337545
      6.98267      8.78941     12.72119         0.280058      0.090591      0.322102
      4.41069     10.42084      1.73150         0.040313      0.020072     -0.202934
      2.35675      1.26761     12.87217        -0.025470     -0.000724      0.277081
     -4.53668     10.47386      1.94710        -0.025540      0.026567     -0.288649
     11.13225      1.44924     12.73200         0.147591     -0.052246      0.330639
      6.77564      6.52019      7.01276        -0.003234     -0.016629     -0.365738
      6.72243      1.04394      2.59315        -0.279825      0.143311      0.371457
      4.23160      2.47883      6.92372         0.125034      0.136569     -0.394709
      9.25178      5.39402      2.92435        -0.122260     -0.038611      0.351748
      9.30665      2.44210      6.71672        -0.114901      0.125989     -0.211410
      4.33887      5.41354      2.93433         0.101650     -0.075286      0.290930
     -0.00277     10.61277     11.93897         0.020860     -0.042951     -0.380307
     -0.06566      5.06944      8.04170         0.010408      0.108384      0.160410
     -2.11695      6.57811     11.87100        -0.098274     -0.050710     -0.377544
      2.52233      9.32525      7.70460        -0.178277     -0.173014      0.386596
      2.45951      6.33588     11.84796        -0.082761      0.031837     -0.398596
     -2.56935      9.20129      8.08709        -0.042730     -0.347154      0.159435
     11.86156      3.09411     14.71039         0.162942     -0.307735     -0.002318
      8.63539      8.62401      0.08634        -0.170376      0.324365     -0.003568
      5.03954      8.46070      0.03413         0.160043      0.376787      0.269175
      1.68668      3.15206     14.65549        -0.149120     -0.353628      0.007520
     -3.21172     11.83136      0.07434        -0.399569     -0.007341     -0.009470
      5.08146      6.96958      4.97976         0.126112     -0.296864      0.010517
[...]
     -3.24529      7.80088      8.35248        -0.006999      0.058664     -0.038301
      3.04539      7.87877      8.19361         0.045710      0.033456     -0.011716
     -3.02428      7.84304     11.41762        -0.013340     -0.051632      0.040630
     -1.66329      5.10776      8.28922        -0.025155     -0.028802     -0.015642
      1.53844     10.44827     11.46583         0.007200      0.040143      0.009185
      1.67763      5.04462     11.26356         0.029126     -0.000205      0.037026
      5.31289      9.05370     13.20270         0.006658     -0.053256     -0.059869
      8.30270      1.15400      3.42085        -0.037238     -0.061821     -0.038219
     -1.62541     10.65113      8.24065         0.017866      0.002036     -0.035377
      7.51445      0.26153      0.55719        -0.006395     -0.014039      0.004452
     -0.22999      7.94627      7.09726         0.001983      0.009305     -0.032374
      6.38902      6.77697     11.38638        -0.048456      0.138667      0.065215
      7.52443      4.88450     10.46752         0.251190      0.121903     -0.459597
      8.68706      5.52742     10.18718        -0.278080     -0.157320      0.086185
      7.10796      4.96812      9.17917         0.067662     -0.046968      0.303773
    total drift:                                0.000185     -0.001863      0.001090

  FREE ENERGIE OF THE ION-ELECTRON SYSTEM (eV)
  free  energy   TOTEN  =     -1187.76831587 eV

  energy  without entropy=    -1187.76831587  energy(sigma->0) =    -1187.76831587

 stress matrix after NEB project (eV)
      0.00000      0.00000      0.00000
      0.00000      0.00000      0.00000
      0.00000      0.00000      0.00000
  FORCES: max atom, RMS     0.537761    0.313301
  FORCE total and by dimension    3.345142    0.459597
  Stress total and by dimension    0.000000    0.000000

 total charge

[...]

 magnetization (x)

# of ion       s       p       d       tot
    1        0.000   0.000   0.000   0.000
    2       -0.000  -0.000   0.000  -0.000
    3        0.000   0.000   0.000   0.000
    4       -0.000  -0.000   0.000  -0.000
    5        0.000   0.000   0.000   0.000
    6       -0.000  -0.000   0.000  -0.000
    7       -0.000   0.000   0.000   0.000
    8        0.000   0.000   0.000   0.000
    9        0.000  -0.000   0.000   0.000
   10        0.000   0.000   0.000   0.000
   11       -0.000  -0.000   0.000  -0.000
   12        0.000   0.000   0.000   0.000
   13       -0.000  -0.000   0.000  -0.000
   14        0.000  -0.000   0.000  -0.000
   15        0.000  -0.000   0.000  -0.000
   16       -0.000  -0.000   0.000  -0.000
   17       -0.000  -0.000   0.000  -0.000
   18        0.000  -0.000   0.000  -0.000
   19        0.000   0.000   0.000   0.000
   20       -0.000  -0.000   0.000  -0.000
   21        0.000   0.000   0.000   0.000
   22        0.000  -0.000   0.000  -0.000
   23        0.000   0.000   0.000   0.000
   24       -0.000  -0.000   0.000  -0.000
   25       -0.000  -0.000   0.000  -0.000
   26        0.000   0.000   0.000   0.000
   27       -0.000  -0.000   0.000  -0.000
   28        0.000   0.000   0.000   0.000
   29        0.000  -0.000   0.000  -0.000
   30        0.000   0.000   0.000   0.000
   31       -0.000  -0.000   0.000  -0.000
   32       -0.000  -0.000   0.000  -0.000
   33       -0.000  -0.000   0.000  -0.000
   34       -0.000  -0.000   0.000  -0.000
   35        0.000  -0.000   0.000  -0.000
   36       -0.000  -0.000   0.000  -0.000
   37        0.000   0.000   0.000   0.000
   38       -0.000  -0.000   0.000  -0.000
   39        0.000   0.000   0.000   0.000
   40       -0.000  -0.000   0.000  -0.000
   41        0.000   0.000   0.000   0.000
   42       -0.000  -0.000   0.000  -0.000
   43       -0.000   0.000   0.000   0.000
   44        0.000   0.000   0.000   0.000
   45        0.000  -0.000   0.000  -0.000
   46        0.000   0.000   0.000   0.000
   47        0.000  -0.000   0.000  -0.000
   48        0.000   0.000   0.000   0.000
   49       -0.000  -0.000   0.000  -0.000
   50        0.000  -0.000   0.000  -0.000
   51       -0.000  -0.000   0.000  -0.000
   52       -0.000  -0.000   0.000  -0.000
   53        0.000  -0.000   0.000  -0.000
   54       -0.000  -0.000   0.000  -0.000
   55        0.000   0.000   0.000   0.000
   56        0.000   0.000   0.000   0.000
   57        0.000   0.000   0.000   0.000
   58        0.000   0.000   0.000   0.000
   59        0.000   0.000   0.000   0.000
   60        0.000   0.000   0.000   0.000
[...]
  100        0.000   0.000   0.000   0.000
  101        0.000   0.000   0.000   0.000
  102        0.000   0.000   0.000   0.000
  103        0.000   0.000   0.000   0.000
  104        0.000   0.000   0.000   0.000
  105        0.000   0.000   0.000   0.000
  106       -0.000  -0.000   0.000  -0.000
  107       -0.000  -0.000   0.000  -0.000
  108        0.000   0.000   0.000   0.000
  109       -0.000  -0.000   0.000   0.000
  110       -0.000   0.000   0.000   0.000
  111        0.000   0.000   0.000   0.000
  112       -0.000  -0.000   0.000  -0.000
  113       -0.000  -0.000   0.000  -0.000
  114       -0.000  -0.000   0.000  -0.000
tot         -0.000   0.000   0.000   0.000