 vasp.5.4.4.18Apr17-6-g9f103f2a35 (build Dec 31 2018 11:41:54) complex

 executed on             LinuxIFC date 2022.04.26  16:30:32

 INCAR:
 POTCAR:   PAW_PBE O 08Apr2002
 POTCAR:   PAW_PBE Si 05Jan2001
 POTCAR:   PAW_PBE Al 04Jan2001
 POTCAR:   PAW_PBE Ag 06Sep2000
 POTCAR:   PAW_PBE O 08Apr2002
   VRHFIN =O: s2p4

   TITEL  = PAW_PBE O 08Apr2002
   POMASS =   16.000; ZVAL   =    6.000    mass and valenz
   ENMAX  =  400.000; ENMIN  =  300.000 eV
   QCUT   =   -5.520; QGAM   =   11.041    optimization parameters

   Description
     l     E      TYP  RCUT    TYP  RCUT
     0   .000     23  1.200
     0  -.700     23  1.200
     1   .000     23  1.520
     1   .600     23  1.520
     2   .000      7  1.500

 POTCAR:   PAW_PBE Si 05Jan2001
   VRHFIN =Si: s2p2

   TITEL  = PAW_PBE Si 05Jan2001
   POMASS =   28.085; ZVAL   =    4.000    mass and valenz
   ENMAX  =  245.345; ENMIN  =  184.009 eV
   QCUT   =   -4.246; QGAM   =    8.493    optimization parameters

[...]

 POTCAR:   PAW_PBE Al 04Jan2001
   VRHFIN =Al: s2p1

   TITEL  = PAW_PBE Al 04Jan2001
   POMASS =   26.982; ZVAL   =    3.000    mass and valenz
   ENMAX  =  240.300; ENMIN  =  180.225 eV
   QCUT   =   -4.203; QGAM   =    8.405    optimization parameters

[...]

 POTCAR:   PAW_PBE Ag 06Sep2000
   VRHFIN =Ag : s1 d10

   TITEL  = PAW_PBE Ag 06Sep2000
   POMASS =  107.868; ZVAL   =   11.000    mass and valenz
   ENMAX  =  249.846; ENMIN  =  187.385 eV
   QCUT   =   -4.285; QGAM   =    8.570    optimization parameters

   Description
     l     E      TYP  RCUT    TYP  RCUT
     2   .000     23  2.400
     2   .000     23  2.400
     0   .000     23  2.400
     0   .000     23  2.400
     1  -.200     23  2.400
     1  1.500     23  2.400
     3   .000      7   .000

 Optimization of the real space projectors (new method)

 maximal supplied QI-value         = 24.76
 optimisation between [QCUT,QGAM] = [ 10.15, 20.30] = [ 28.85,115.39] Ry
 Optimized for a Real-space Cutoff    1.51 Angstroem

   l    n(q)    QCUT    max X(q) W(low)/X(q) W(high)/X(q)  e(spline)
   0      9    10.150     4.192    0.32E-04    0.13E-04    0.13E-06
   0      9    10.150     8.473    0.18E-03    0.20E-03    0.43E-06
   1      9    10.150     2.474    0.32E-04    0.33E-04    0.64E-07
   1      9    10.150     3.912    0.13E-03    0.16E-03    0.33E-06
 Optimization of the real space projectors (new method)

[...]

   l    n(q)    QCUT    max X(q) W(low)/X(q) W(high)/X(q)  e(spline)
   0      8    10.119    13.410    0.28E-04    0.17E-04    0.51E-08
   0      8    10.119   140.052    0.10E-03    0.16E-03    0.42E-07
   1      7    10.119     9.624    0.38E-04    0.42E-05    0.15E-07
   1      7    10.119    53.353    0.23E-03    0.17E-03    0.13E-06
 Optimization of the real space projectors (new method)

 maximal supplied QI-value         = 15.68
 optimisation between [QCUT,QGAM] = [ 10.20, 20.39] = [ 29.11,116.42] Ry
 Optimized for a Real-space Cutoff    1.51 Angstroem

   l    n(q)    QCUT    max X(q) W(low)/X(q) W(high)/X(q)  e(spline)
   2      8    10.195     3.831    0.11E-04    0.20E-04    0.48E-07
   2      8    10.195    20.184    0.23E-03    0.42E-03    0.20E-06
   0      9    10.195    16.770    0.13E-04    0.90E-05    0.63E-08
   0      9    10.195    80.708    0.19E-03    0.15E-03    0.44E-07
   1      9    10.195     6.696    0.12E-04    0.45E-04    0.30E-07
   1      9    10.195     8.973    0.12E-03    0.15E-03    0.13E-06
 PAW_PBE O 08Apr2002                    :
 PAW_PBE Si 05Jan2001                   :
 PAW_PBE Al 04Jan2001                   :
 PAW_PBE Ag 06Sep2000                   :

 POSCAR: O  C
  positions in direct lattice
  velocities in cartesian coordinates
 exchange correlation table for  LEXCH =        8
   RHO(1)=    0.500       N(1)  =     2000
   RHO(2)=  100.500       N(2)  =     4000

 VTST: version 3.2, (02/03/18)

 CHAIN: initializing optimizer

 OPT: Using VASP Quick-Min optimizer
 CHAIN: Read ICHAIN            1

 POSCAR: O  C
  positions in direct lattice
  velocities in cartesian coordinates
 CHAIN: Running the Dynamical Matrix

 ion  position               nearest neighbor table
   1  0.896  0.095  0.120-  74 1.63  81 1.63
   2  0.101  0.887  0.880-  75 1.62  80 1.63
   3  0.891  0.792  0.130-  84 1.62  76 1.64
   4  0.093  0.194  0.867-  77 1.63  83 1.63
   5  0.193  0.101  0.117-  78 1.63  82 1.63
   6  0.799  0.901  0.883-  79 1.60 107 1.72
   7  0.552  0.424  0.458-  85 1.62  91 1.63
   8  0.761  0.232  0.220-  90 1.59 108 1.73
   9  0.564  0.140  0.471-  95 1.64  86 1.64
  10  0.764  0.536  0.204-  94 1.63  87 1.63
  11  0.863  0.424  0.461-  93 1.62  88 1.63
  12  0.462  0.234  0.184-  89 1.63  92 1.64
  13  0.229  0.772  0.777- 103 1.61  96 1.64
  14  0.423  0.568  0.525- 102 1.66  97 1.66 111 2.56
  15  0.231  0.450  0.775- 106 1.62  98 1.62
  16  0.427  0.849  0.532-  99 1.62 109 1.79 111 2.28
  17  0.531  0.755  0.806- 100 1.63 105 1.64
  18  0.121  0.557  0.534- 104 1.65 101 1.68 111 2.45
  19  0.974  0.314  0.161-  74 1.61  90 1.63
  20  0.019  0.667  0.842- 103 1.62  75 1.62
  21  0.675  0.671  0.175-  94 1.61  76 1.63
  22  0.311  0.315  0.819- 106 1.62  77 1.63
  23  0.316  0.013  0.178-  78 1.61  92 1.63
  24  0.661  0.978  0.828- 105 1.62  79 1.63
  25  0.321  0.982  0.839-  80 1.61  96 1.63
  26  0.675  0.003  0.163-  81 1.60 108 1.74 110 2.54
  27  0.671  0.672  0.813- 100 1.63 107 1.78 112 2.23
  28  0.329  0.321  0.159-  82 1.62  89 1.62
  29  0.016  0.334  0.833-  98 1.61  83 1.62
  30  0.984  0.668  0.173-  84 1.62  87 1.62
  31  0.645  0.640  0.503- 102 1.61  85 1.62
  32  0.340  0.991  0.476-  86 1.59 109 1.71
  33  0.992  0.335  0.499- 104 1.60  88 1.63
  34  0.334  0.348  0.482-  97 1.61  91 1.63
  35  0.985  0.642  0.504- 101 1.62  93 1.62
  36  0.647  0.006  0.516-  99 1.61  95 1.64
  37  0.115  0.241  0.129-  82 1.61  74 1.62
  38  0.882  0.746  0.854-  75 1.64 107 1.78 112 2.27
  39  0.758  0.876  0.112-  81 1.60  76 1.61
  40  0.226  0.106  0.870-  77 1.61  80 1.62
  41  0.109  0.880  0.129-  78 1.61  84 1.61
  42  0.874  0.120  0.859-  83 1.62  79 1.62
  43  0.772  0.554  0.470-  85 1.61  93 1.62
  44  0.533  0.085  0.176-  92 1.62 108 1.79 110 2.31
  45  0.412  0.207  0.468-  91 1.60  86 1.64
  46  0.901  0.452  0.198-  87 1.61  90 1.63
  47  0.781  0.205  0.453-  88 1.60  95 1.63
  48  0.544  0.454  0.195-  89 1.61  94 1.62
  49  0.445  0.891  0.808- 105 1.62  96 1.64
  50  0.208  0.427  0.540-  97 1.61 104 1.62
  51  0.118  0.552  0.802-  98 1.61 103 1.62
  52  0.578  0.786  0.521- 102 1.61  99 1.64
  53  0.450  0.533  0.801- 100 1.62 106 1.62
  54  0.200  0.774  0.544- 101 1.58 109 1.74 111 2.77
  55  0.994  0.255  0.995-  83 1.62  74 1.63
  56  0.986  0.728  0.003-  75 1.62  84 1.63
  57  0.730  0.710  0.002-  76 1.60 107 1.72
  58  0.254  0.263  0.992-  77 1.63  82 1.63
  59  0.265  0.998  0.004-  80 1.63  78 1.64
  60  0.659  0.584  0.335-  85 1.61  94 1.63
  61  0.629  0.047  0.342-  95 1.60 108 1.72
  62  0.437  0.105  0.326-  92 1.61  86 1.63
  63  0.915  0.584  0.336-  93 1.62  87 1.63
  64  0.937  0.342  0.331-  88 1.62  90 1.64
  65  0.404  0.322  0.323-  91 1.62  89 1.63
  66  0.355  0.946  0.668-  96 1.59 109 1.74
  67  0.350  0.408  0.655-  97 1.62 106 1.64
  68  0.058  0.404  0.666- 104 1.61  98 1.63
  69  0.573  0.894  0.668- 105 1.61  99 1.62
  70  0.568  0.658  0.661- 102 1.61 100 1.62
  71  0.052  0.640  0.671- 103 1.63 101 1.63
  72  0.730  0.011  0.995-  79 1.66  81 1.67 110 2.50
  73  0.792  0.511  0.662- 112 1.96
  74  0.994  0.226  0.102-  19 1.61  37 1.62  55 1.63   1 1.63  90 3.10  82 3.10  81 3.12  83 3.14

  75  0.999  0.759  0.896-  56 1.62  20 1.62   2 1.62  38 1.64 103 3.06  84 3.13 107 3.17
  76  0.763  0.761  0.102-  57 1.60  39 1.61  21 1.63   3 1.64  94 3.00 107 3.07  84 3.09
  77  0.221  0.219  0.888-  40 1.61  58 1.63  22 1.63   4 1.63 106 3.07  82 3.11  83 3.13
  78  0.220  0.999  0.107-  41 1.61  23 1.61   5 1.63  59 1.64  92 3.04  80 3.08
  79  0.768  0.999  0.890-   6 1.60  42 1.62  24 1.63  72 1.66 105 3.07  83 3.09  81 3.10 107 3.23

[...]

 102  0.554  0.664  0.553-  31 1.61  52 1.61  70 1.61  14 1.66  99 3.04  85 3.06  97 3.11
 103  0.107  0.660  0.772-  13 1.61  51 1.62  20 1.62  71 1.63  75 3.06 101 3.08  98 3.08
 104  0.092  0.428  0.560-  33 1.60  68 1.61  50 1.62  18 1.65  88 3.03  98 3.09 101 3.14
 105  0.552  0.880  0.776-  69 1.61  49 1.62  24 1.62  17 1.64  79 3.07 100 3.08  96 3.08
 106  0.334  0.425  0.763-  22 1.62  15 1.62  53 1.62  67 1.64  77 3.07 100 3.07  97 3.11
 107  0.770  0.764  0.894-  57 1.72   6 1.72  27 1.78  38 1.78 112 3.04  76 3.07 100 3.15  75 3.17
                            79 3.23
 108  0.653  0.094  0.232-  61 1.72   8 1.73  26 1.74  44 1.79  92 3.07 110 3.10  95 3.11  81 3.16
                            90 3.23
 109  0.329  0.897  0.557-  32 1.71  54 1.74  66 1.74  16 1.79  86 3.07  96 3.13  99 3.17 111 3.23

 110  0.561  0.025  0.037-  44 2.31  72 2.50  26 2.54 108 3.10  81 3.17
 111  0.316  0.669  0.480-  16 2.28  18 2.45  14 2.56  54 2.77 109 3.23 101 3.25  99 3.35
 112  0.781  0.614  0.748-  73 1.96  27 2.23  38 2.27 107 3.04

  LATTYP: Found a hexagonal cell.
 ALAT       =    13.6750001907
 C/A-ratio  =     1.0798537472

  Lattice vectors:

 A1 = (  13.6750001907,   0.0000000000,   0.0000000000)
 A2 = (  -6.8375000954,  11.8428975619,   0.0000000000)
 A3 = (   0.0000000000,   0.0000000000,  14.7670001984)

Analysis of symmetry for initial positions (statically):
 Subroutine PRICEL returns:
 Original cell was already a primitive cell.

 Routine SETGRP: Setting up the symmetry group for a
 hexagonal supercell.

 Subroutine GETGRP returns: Found  1 space group operations
 (whereof  1 operations were pure point group operations)
 out of a pool of 24 trial point group operations.

The static configuration has the point symmetry C_1 .

Analysis of symmetry for dynamics (positions and initial velocities):
 Subroutine PRICEL returns:
 Original cell was already a primitive cell.

[...]

The dynamic configuration has the point symmetry C_1 .

Analysis of structural, dynamic, and magnetic symmetry:
 Subroutine PRICEL returns:
 Original cell was already a primitive cell.

 Routine SETGRP: Setting up the symmetry group for a
 hexagonal supercell.

 Subroutine GETGRP returns: Found  1 space group operations
 (whereof  1 operations were pure point group operations)
 out of a pool of 24 trial point group operations.

The magnetic configuration has the point symmetry C_1 .

 Subroutine INISYM returns: Found  1 space group operations
 (whereof  1 operations are pure point group operations),
 and found     1 'primitive' translations

 KPOINTS: Gamma points only
  k-points in reciprocal lattice
Space group operators:
 irot       det(A)        alpha          n_x          n_y          n_z        tau_x        tau_y        tau_z
    1     1.000000     0.000000     1.000000     0.000000     0.000000     0.000000     0.000000     0.000000

 SYSTEM =  zeolite
 POSCAR =  O  C

 Startparameter for this run:
   NWRITE =      2    write-flag & timer
   PREC   = acc       normal or accurate (medium, high low for compatibility)
   ISTART =      0    job   : 0-new  1-cont  2-samecut
[...]
 DYNMAT: Loop at J=          64
 DYNMAT: Before DIRKAR
 DYNMAT: After DIRKAR
      10.476157945135162       4.051329741483868       4.884438199851929
 DYNMAT: Loop at J=          65
 DYNMAT: Before DIRKAR
 DYNMAT: After DIRKAR
       3.325403978831685       3.812090796721983       4.773044543594435
 DYNMAT: Loop at J=          66
 DYNMAT: Before DIRKAR
 DYNMAT: After DIRKAR
      -1.615975115038609      11.207048616164659       9.861808628150335
 DYNMAT: Loop at J=          67
 DYNMAT: Before DIRKAR
 DYNMAT: After DIRKAR
       1.993129528902297       4.829292600042375       9.673496142100554
 DYNMAT: Loop at J=          68
 DYNMAT: Before DIRKAR
 DYNMAT: After DIRKAR
      -1.965208968107131       4.784914749999059       9.836183828611189
 DYNMAT: Loop at J=          69
 DYNMAT: Before DIRKAR
 DYNMAT: After DIRKAR
       1.726667110295551      10.592045895499378       9.863784502611839
 DYNMAT: Loop at J=          70
 DYNMAT: Before DIRKAR
 DYNMAT: After DIRKAR
       3.263386742731150       7.795623427920709       9.761729313698202
 DYNMAT: Loop at J=          71
 DYNMAT: Before DIRKAR
 DYNMAT: After DIRKAR
      -3.656636777332714       7.574283528184828       9.904002802063411
 DYNMAT: Loop at J=          72
 DYNMAT: Before DIRKAR
 DYNMAT: After DIRKAR
       9.912245105718258       0.129890898222464      14.690968444475688
 DYNMAT: Loop at J=          73
 DYNMAT: Before DIRKAR
 DYNMAT: After DIRKAR
       7.342622128473801       6.052974333816895       9.769662960386571
 DYNMAT: Loop at J=          74
 DYNMAT: Before DIRKAR
 DYNMAT: After DIRKAR
      12.044587642485782       2.672582076558313       1.508422086980137
 DYNMAT: Loop at J=          75
 DYNMAT: Before DIRKAR
 DYNMAT: After DIRKAR
       8.469040804135538       8.985029200096630      13.236787947823252
 DYNMAT: Loop at J=          76
 DYNMAT: Before DIRKAR
 DYNMAT: After DIRKAR
       5.224320409657257       9.012713264575943       1.506486180404591
 DYNMAT: Loop at J=          77
 DYNMAT: Before DIRKAR
 DYNMAT: After DIRKAR
       1.518062177902374       2.597437240585595      13.116674224030445
 DYNMAT: Loop at J=          78
 DYNMAT: Before DIRKAR
 DYNMAT: After DIRKAR
      -3.819437389355183      11.833537636318663       1.578350663617766
 DYNMAT: Loop at J=          79
 DYNMAT: Before DIRKAR
 DYNMAT: After DIRKAR
       3.673507214804398      11.836465822020363      13.147382837129950
 DYNMAT: Loop at J=          80
 DYNMAT: Before DIRKAR
 DYNMAT: After DIRKAR
      -3.672254380071660      11.756899640441894      13.266480825932938
 DYNMAT: Loop at J=          81
 DYNMAT: Before DIRKAR
 DYNMAT: After DIRKAR
       3.671298496630625      11.801239777913063       1.477222879247475
 DYNMAT: Loop at J=          82
 DYNMAT: Before DIRKAR
 DYNMAT: After DIRKAR
       1.471544739241683       2.735406733940943       1.459474178119180
 DYNMAT: Loop at J=          83
 DYNMAT: Before DIRKAR
 DYNMAT: After DIRKAR
      12.066846497327521       2.659441769917534      13.139663478113272
 DYNMAT: Loop at J=          84
 DYNMAT: Before DIRKAR
 DYNMAT: After DIRKAR
       8.316119996107066       9.081199454467153       1.598545729288736
 DYNMAT: Loop at J=          85
 DYNMAT: Before DIRKAR
 DYNMAT: After DIRKAR
       5.224958307287185       6.508027700684836       6.492317244946813
 DYNMAT: Loop at J=          86
 DYNMAT: Before DIRKAR
 DYNMAT: After DIRKAR
       5.245119128235806       1.271081321553910       6.435916136762629
 DYNMAT: Loop at J=          87
 DYNMAT: Before DIRKAR
 DYNMAT: After DIRKAR
       8.349848069010900       6.617426568394265       3.369061285841100
 DYNMAT: Loop at J=          88
 DYNMAT: Before DIRKAR
 DYNMAT: After DIRKAR
       9.962151670441878       3.846558980944314       6.408963635791495
 DYNMAT: Loop at J=          89
 DYNMAT: Before DIRKAR
 DYNMAT: After DIRKAR
       3.683671103141732       3.931245111681565       3.191692154705107
 DYNMAT: Loop at J=          90
 DYNMAT: Before DIRKAR
 DYNMAT: After DIRKAR
       9.892161023703348       3.921235829497072       3.354975013533042
 DYNMAT: Loop at J=          91
 DYNMAT: Before DIRKAR
 DYNMAT: After DIRKAR
       3.612164080821294       3.836045021674383       6.368136519290331
 DYNMAT: Loop at J=          92
 DYNMAT: Before DIRKAR
 DYNMAT: After DIRKAR
       5.238880387384605       1.292145724100053       3.201979633263145
 DYNMAT: Loop at J=          93
 DYNMAT: Before DIRKAR
 DYNMAT: After DIRKAR
       8.330196165988321       6.507996891325733       6.515476089397212
 DYNMAT: Loop at J=          94
 DYNMAT: Before DIRKAR
 DYNMAT: After DIRKAR
       5.210942003340044       6.644791995239993       3.354101324013892
 DYNMAT: Loop at J=          95
 DYNMAT: Before DIRKAR
 DYNMAT: After DIRKAR
       8.265553876781196       1.168989827609740       6.534004259444625
 DYNMAT: Loop at J=          96
 DYNMAT: Before DIRKAR
 DYNMAT: After DIRKAR
      -1.534683804626722      10.651420069019981      11.351420979619357
 DYNMAT: Loop at J=          97
 DYNMAT: Before DIRKAR
 DYNMAT: After DIRKAR
       1.522701012914117       5.154950426133418       8.153346792187490
 DYNMAT: Loop at J=          98
 DYNMAT: Before DIRKAR
 DYNMAT: After DIRKAR
      -1.524462469164646       5.146500940194167      11.358917976963914
 DYNMAT: Loop at J=          99
 DYNMAT: Before DIRKAR
 DYNMAT: After DIRKAR
       1.538793094952458      10.502221651226717       8.252232004387780
 DYNMAT: Loop at J=         100
 DYNMAT: Before DIRKAR
 DYNMAT: After DIRKAR
       3.091108202596571       7.754195532953391      11.373268471439145
 DYNMAT: Loop at J=         101
 DYNMAT: Before DIRKAR
 DYNMAT: After DIRKAR
      -3.257836043446090       7.779429751805295       8.332737775250889
 DYNMAT: Loop at J=         102
 DYNMAT: Before DIRKAR
 DYNMAT: After DIRKAR
       3.043137647142761       7.862694743607184       8.164475357788955
 DYNMAT: Loop at J=         103
 DYNMAT: Before DIRKAR
 DYNMAT: After DIRKAR
      -3.055064112340825       7.816396489618157      11.401601461599185
 DYNMAT: Loop at J=         104
 DYNMAT: Before DIRKAR
 DYNMAT: After DIRKAR
      -1.670549768633895       5.072597058327251       8.275503264883609
 DYNMAT: Loop at J=         105
 DYNMAT: Before DIRKAR
 DYNMAT: After DIRKAR
       1.538165239304830      10.415972737644912      11.454695505512678
 DYNMAT: Loop at J=         106
 DYNMAT: Before DIRKAR
 DYNMAT: After DIRKAR
       1.665189404952701       5.037810994842299      11.262349961703936
 DYNMAT: Loop at J=         107
 DYNMAT: Before DIRKAR
 DYNMAT: After DIRKAR
       5.298213429612990       9.050518095598774      13.208849222020111
 DYNMAT: Loop at J=         108
 DYNMAT: Before DIRKAR
 DYNMAT: After DIRKAR
       8.295045796283160       1.109244662057848       3.423893376102872
 DYNMAT: Loop at J=         109
 DYNMAT: Before DIRKAR
 DYNMAT: After DIRKAR
      -1.628834318413229      10.620489039005442       8.226587008967616
 DYNMAT: Loop at J=         110
 DYNMAT: Before DIRKAR
 DYNMAT: After DIRKAR
       7.500695801432553       0.296795043719910       0.544034297254026
 DYNMAT: Loop at J=         111
 DYNMAT: Before DIRKAR
 DYNMAT: After DIRKAR
      -0.258258751567667       7.926211041823692       7.092586710086956
 DYNMAT: Loop at J=         112
 DYNMAT: Before DIRKAR
 DYNMAT: After DIRKAR
       6.483578109753072       7.275460635766709      11.042898215979601
 HIPREC TOTAL-FORCE (eV/A)
       0.000496083090258       0.000324060518990       0.000550193919287
       0.000056164670779       0.000274006656784      -0.000452543354191
       0.001596905939443      -0.000711397855457       0.001462217224980
       0.001436468298904      -0.000609264150477      -0.001259241282959
       0.000518195646026      -0.000124972359522      -0.000538627636811
       0.000966510745371      -0.000594647351854       0.000069829979173
      -0.000030609106272      -0.000179155131061      -0.002263287401980
       0.001160282112777       0.000482576772814       0.000292249932315
       0.000819792715390      -0.000890894395761       0.000548543615079
       0.000106959448036      -0.000437486738547       0.000902535709895
      -0.000956988648390       0.001434993785661      -0.002762920107515
      -0.000412596999069      -0.000403238736694      -0.000036949290534
       0.000544553483451       0.000359696689498       0.000863683752967
      -0.000079845649454       0.000534270393153       0.000520171177686
       0.000982381356973       0.002141572088994       0.001679708589628
       0.000337294481068       0.000502968047545      -0.001221343680553
       0.000528425854815      -0.000369525483918       0.000158298655960
      -0.000060277223784      -0.000767778080819       0.001323954656901
      -0.000178988560562      -0.000790435186581      -0.001408727227865
      -0.000731355228178       0.001028853770066       0.001756866249925
      -0.000853206497497      -0.002587816102537      -0.002065041621865
       0.000653544451639       0.001722905910317       0.000229564231042
       0.000139480112225      -0.000472315071237       0.000572409794067
       0.000220947512274       0.000500515030634      -0.001251795377178
       0.000724328924195       0.000543904981245      -0.000263224084937
       0.000523818951683      -0.001412528435360      -0.001061133889148
       0.001071023310671       0.000825416306780      -0.000958371927032
       0.000656300173669      -0.000491759710661      -0.000364619486879
       0.000497387382663      -0.000170830842672       0.002136457088218
       0.000147723904190      -0.001238360464800      -0.003746651258709
      -0.000059738080430       0.000039658865899       0.000144842371715
      -0.000882698423084       0.003175033582673      -0.000619088609971
      -0.001453164879400       0.000320642558609       0.001247064383829
       0.000944743261920       0.000136048958543       0.000271593592627
       0.000305564980485      -0.000735557530990       0.000572226638480
       0.000339741705771       0.000858093581002      -0.000143896691330
      -0.000429900901094      -0.002134482760424       0.002092102021665
      -0.000985041893100       0.002285804604165      -0.003136919289331
       0.000036359156841      -0.003498230717297      -0.001909376097973
       0.001048912714800       0.004410415703662       0.001497083547456
      -0.000881254701504      -0.001471551989195       0.000488894957454
      -0.000589616029503       0.000954205332338      -0.000033664726486
      -0.000468404256596       0.000661600952175      -0.002298959267291
      -0.000470214634975      -0.000410687332489       0.000605798136818
      -0.000044458312062       0.001176561010660       0.000153775009761
      -0.000829247903073       0.000235058553830       0.001175119617387
      -0.001751877268804      -0.001286117875516      -0.000070511350986
       0.000254894061478      -0.001158909534220       0.000691962621096
       0.000485211379252       0.000108943083791      -0.000046605674482
      -0.001168380998098       0.000042612702414      -0.001244406063203
      -0.000769615515090      -0.000480975087191       0.000025740905364
      -0.000381554700714       0.000052349277394      -0.000568241129492
       0.002736446165235       0.002738682972169       0.000220825141698
      -0.000039465657135      -0.001053135517272       0.000135462961330
       0.002635353618544      -0.000702806635145       0.003278130933352
      -0.003528403949246       0.001872748545525      -0.000199027440422
       0.004295793962989       0.000183537329678       0.000072719604049
      -0.002683810267290       0.000786324314133       0.004104407245337
       0.000784056588350      -0.001232506096426       0.002147680095315
      -0.001808252721909       0.002019611148145      -0.002196971946810
[...]
       0.001669946702277       0.001844375586481       0.001945036759219
      -0.000766942433647       0.000110804477722      -0.001195304168349
      -0.000198957686216       0.000207456755998      -0.000603429714959
      -0.000950294522298       0.001198088352309       0.000547439020164
       0.000122729710777      -0.000446617088783      -0.000954742884049
       0.000207862893072       0.000917574301678       0.000021567606210
       0.001341473844974       0.000463437041928       0.000016270268397
      -0.000873290557381      -0.000071330025372      -0.000613752268038
      -0.002159256110749      -0.001400174573268       0.000765944690381
       0.000940529997015       0.002744421396526      -0.001361011757504
      -0.000137758219092      -0.001261807111640       0.001205145724278
       0.000344175388780      -0.000365218130979       0.000309372478058
      -0.001384660047250       0.000136730155997       0.000239831834251
      -0.000677503164558       0.000084516114990       0.000174705686758
      -0.002561934564037       0.002093336922502       0.007976354607584
DYMAT: ------------------------------
DYMAT: DEGREE OF FREEDOM  73  1  1
DYMAT: ------------------------------
DYMAT: DEGREE OF FREEDOM  73  2  2
DYMAT: ------------------------------
DYMAT: DEGREE OF FREEDOM  73  3  3
DYMAT: LEAVING
 stress matrix after NEB project (eV)
    -22.32491     -0.41935      0.05344
     -0.41935    -23.22690     -0.78348
      0.05344     -0.78348    -27.70558
  FORCES: max atom, RMS     0.013297    0.002701
  FORCE total and by dimension    0.028583    0.013093
  Stress total and by dimension   42.509698   27.705575

[...]

 total charge

[...]

 magnetization (x)

# of ion       s       p       d       tot
    1        0.000   0.000   0.000   0.000
    2        0.000   0.002   0.000   0.002
    3        0.000   0.001   0.000   0.001
    4        0.000   0.000   0.000   0.000
    5        0.000   0.000   0.000   0.000
    6        0.000   0.003   0.000   0.003
    7       -0.000   0.000   0.000   0.000
    8        0.000   0.000   0.000   0.000
    9       -0.000   0.000   0.000   0.000
   10        0.000   0.000   0.000   0.000
   11       -0.000  -0.000   0.000  -0.000
   12        0.000   0.000   0.000   0.000
   13        0.000   0.001   0.000   0.001
   14       -0.000   0.000   0.000   0.000
   15       -0.000   0.000   0.000   0.000
   16        0.000   0.000   0.000   0.000
   17        0.000   0.004   0.000   0.004
   18        0.000   0.000   0.000   0.000
   19        0.000   0.000   0.000   0.000
   20       -0.000   0.000   0.000   0.000
   21        0.000   0.000   0.000   0.000
   22        0.000   0.000   0.000   0.000
   23        0.000   0.000   0.000   0.000
   24        0.000   0.001   0.000   0.001
   25        0.000   0.001   0.000   0.001
   26        0.000   0.000   0.000   0.000
   27        0.003   0.043   0.000   0.046
   28       -0.000   0.000   0.000   0.000
   29       -0.000   0.000   0.000   0.000
   30        0.000   0.000   0.000   0.000
   31       -0.000  -0.000   0.000  -0.000
   32        0.000   0.000   0.000   0.000
   33       -0.000   0.000   0.000   0.000
   34       -0.000   0.000   0.000   0.000
   35        0.000   0.003   0.000   0.003
   36        0.000   0.000   0.000   0.000
   37        0.000   0.000   0.000   0.000
   38        0.003   0.052   0.000   0.055
   39        0.000   0.000   0.000   0.000
   40       -0.000   0.000   0.000   0.000
   41        0.000   0.000   0.000   0.000
   42        0.000   0.000   0.000   0.000
   43        0.001   0.016   0.000   0.017
   44        0.000   0.000   0.000   0.000
   45        0.000   0.000   0.000   0.000
   46        0.000   0.000   0.000   0.000
   47        0.000  -0.000   0.000  -0.000
   48        0.000   0.000   0.000   0.000
   49        0.000   0.000   0.000   0.000
   50       -0.000   0.000   0.000   0.000
   51       -0.000   0.000   0.000   0.000
   52       -0.000   0.000   0.000   0.000
   53        0.000   0.000   0.000   0.001
   54        0.000   0.001   0.000   0.001
   55       -0.000   0.000   0.000   0.000
   56        0.000   0.003   0.000   0.003
   57        0.000   0.004   0.000   0.004
   58       -0.000   0.000   0.000   0.000
   59        0.000   0.000   0.000   0.000
   60        0.000   0.002   0.000   0.002
[...]
   98       -0.000  -0.000   0.000  -0.000
   99       -0.000  -0.000   0.000  -0.000
  100        0.000   0.000   0.000   0.001
  101       -0.000  -0.000   0.000  -0.000
  102       -0.000  -0.000   0.000  -0.000
  103       -0.000   0.000   0.000  -0.000
  104        0.000   0.000   0.000   0.000
  105        0.000   0.000   0.000   0.000
  106        0.000   0.000   0.000   0.000
  107       -0.000   0.000   0.000  -0.000
  108        0.000   0.000   0.000   0.000
  109       -0.000  -0.000   0.000  -0.000
  110       -0.000  -0.000   0.000   0.000
  111       -0.000  -0.000   0.000   0.000
  112       -0.017  -0.005   0.384   0.362
tot          0.005   1.320   0.384   1.709