 vasp.5.4.4.18Apr17-6-g9f103f2a35 (build Dec 31 2018 11:41:54) complex

 executed on             LinuxIFC date 2022.06.28  11:49:31

 INCAR:
 POTCAR:   PAW_PBE O 08Apr2002
 POTCAR:   PAW_PBE Si 05Jan2001
 POTCAR:   PAW_PBE Al 04Jan2001
 POTCAR:   PAW_PBE Ag 06Sep2000
 POTCAR:    PAW_PBE S 17Jan2003
 POTCAR:   PAW_PBE C 08Apr2002
 POTCAR:   PAW_PBE O 08Apr2002
   VRHFIN =O: s2p4

   TITEL  = PAW_PBE O 08Apr2002
   POMASS =   16.000; ZVAL   =    6.000    mass and valenz
   ENMAX  =  400.000; ENMIN  =  300.000 eV
   QCUT   =   -5.520; QGAM   =   11.041    optimization parameters

   Description
     l     E      TYP  RCUT    TYP  RCUT
     0   .000     23  1.200
     0  -.700     23  1.200
     1   .000     23  1.520
     1   .600     23  1.520
     2   .000      7  1.500

 POTCAR:   PAW_PBE Si 05Jan2001
   VRHFIN =Si: s2p2

   TITEL  = PAW_PBE Si 05Jan2001
   POMASS =   28.085; ZVAL   =    4.000    mass and valenz
   ENMAX  =  245.345; ENMIN  =  184.009 eV
   QCUT   =   -4.246; QGAM   =    8.493    optimization parameters

[...]

 POTCAR:   PAW_PBE Al 04Jan2001
   VRHFIN =Al: s2p1

[...]

 POTCAR:   PAW_PBE Ag 06Sep2000
   VRHFIN =Ag : s1 d10

   TITEL  = PAW_PBE Ag 06Sep2000
   POMASS =  107.868; ZVAL   =   11.000    mass and valenz
   ENMAX  =  249.846; ENMIN  =  187.385 eV
   QCUT   =   -4.285; QGAM   =    8.570    optimization parameters

[...]

 POTCAR:    PAW_PBE S 17Jan2003
   VRHFIN =S : s2p4

   TITEL  = PAW_PBE S 17Jan2003
   POMASS =   32.066; ZVAL   =    6.000    mass and valenz
   ENMAX  =  280.000; ENMIN  =  194.016 eV
   QCUT   =   -4.360; QGAM   =    8.721    optimization parameters

[...]

 POTCAR:   PAW_PBE C 08Apr2002
   VRHFIN =C: s2p2

   TITEL  = PAW_PBE C 08Apr2002
   POMASS =   12.011; ZVAL   =    4.000    mass and valenz
   ENMAX  =  400.000; ENMIN  =  300.000 eV
   QCUT   =   -5.516; QGAM   =   11.032    optimization parameters

   Description
     l     E      TYP  RCUT    TYP  RCUT
     0   .000     23  1.200
     0   .000     23  1.200
     1   .000     23  1.500
     1  2.500     23  1.500
     2   .000      7  1.500

 Optimization of the real space projectors (new method)

 maximal supplied QI-value         = 24.76
 optimisation between [QCUT,QGAM] = [ 10.15, 20.30] = [ 28.85,115.39] Ry
 Optimized for a Real-space Cutoff    1.51 Angstroem

   l    n(q)    QCUT    max X(q) W(low)/X(q) W(high)/X(q)  e(spline)
   0      9    10.150     4.192    0.32E-04    0.13E-04    0.13E-06
   0      9    10.150     8.473    0.18E-03    0.20E-03    0.43E-06
   1      9    10.150     2.474    0.32E-04    0.33E-04    0.64E-07
   1      9    10.150     3.912    0.13E-03    0.16E-03    0.33E-06
 Optimization of the real space projectors (new method)

[...]

   l    n(q)    QCUT    max X(q) W(low)/X(q) W(high)/X(q)  e(spline)
   0      9    10.119     5.487    0.15E-04    0.47E-05    0.66E-08
   0      9    10.119    85.627    0.51E-04    0.92E-04    0.63E-07
   1      8    10.119     3.530    0.37E-05    0.76E-05    0.28E-07
   1      8    10.119    42.714    0.16E-03    0.16E-03    0.23E-06
 Optimization of the real space projectors (new method)

 maximal supplied QI-value         = 25.13
 optimisation between [QCUT,QGAM] = [ 10.05, 20.36] = [ 28.30,116.06] Ry
 Optimized for a Real-space Cutoff    1.38 Angstroem

   l    n(q)    QCUT    max X(q) W(low)/X(q) W(high)/X(q)  e(spline)
   0      8    10.053     5.582    0.33E-04    0.15E-04    0.75E-07
   0      8    10.053    69.432    0.23E-03    0.38E-03    0.25E-06
   1      8    10.053     2.780    0.76E-04    0.11E-03    0.15E-06
   1      8    10.053     4.549    0.19E-03    0.19E-03    0.27E-06
 PAW_PBE O 08Apr2002                    :
 PAW_PBE Si 05Jan2001                   :
 PAW_PBE Al 04Jan2001                   :
 PAW_PBE Ag 06Sep2000                   :
  PAW_PBE S 17Jan2003                   :
 PAW_PBE C 08Apr2002                    :

 POSCAR: O  C
  positions in direct lattice
  velocities in cartesian coordinates
 exchange correlation table for  LEXCH =        8
   RHO(1)=    0.500       N(1)  =     2000
   RHO(2)=  100.500       N(2)  =     4000

 VTST: version 3.2, (02/03/18)

 CHAIN: initializing optimizer

 OPT: Using VASP Dynamics algorithm
 CHAIN: Read ICHAIN            0

 POSCAR: O  C
  positions in direct lattice
  velocities in cartesian coordinates

 ion  position               nearest neighbor table
   1  0.899  0.098  0.118-  74 1.63  81 1.63
   2  0.105  0.888  0.879-  80 1.63  75 1.63
   3  0.894  0.794  0.129-  84 1.61  76 1.64
   4  0.097  0.197  0.865-  77 1.63  83 1.63
   5  0.197  0.104  0.115-  78 1.62  82 1.63
   6  0.805  0.904  0.880-  79 1.59 107 1.73
   7  0.556  0.427  0.456-  85 1.62  91 1.63
   8  0.764  0.234  0.217-  90 1.59 108 1.73
   9  0.567  0.142  0.470-  95 1.64  86 1.65
  10  0.768  0.540  0.206-  94 1.63  87 1.63
  11  0.864  0.426  0.461-  93 1.62  88 1.64
  12  0.466  0.236  0.182-  89 1.63  92 1.64
  13  0.234  0.775  0.775- 103 1.61  96 1.64
  14  0.425  0.570  0.524-  97 1.66 102 1.67 111 2.55
  15  0.232  0.447  0.771-  98 1.62 106 1.62
  16  0.429  0.852  0.529-  99 1.63 109 1.79 111 2.27
  17  0.530  0.755  0.803- 100 1.63 105 1.64
  18  0.125  0.560  0.533- 104 1.65 101 1.68 111 2.44
  19  0.978  0.316  0.160-  74 1.61  90 1.63
  20  0.025  0.669  0.843- 103 1.62  75 1.63
  21  0.678  0.673  0.172-  94 1.61  76 1.63
  22  0.315  0.316  0.817- 106 1.62  77 1.63
  23  0.319  0.015  0.177-  78 1.61  92 1.63
  24  0.666  0.979  0.826- 105 1.62  79 1.63
  25  0.325  0.986  0.837-  80 1.61  96 1.63
  26  0.678  0.004  0.161-  81 1.60 108 1.74 110 2.53
  27  0.671  0.673  0.813- 100 1.61 107 1.76 112 2.43
  28  0.333  0.323  0.157-  82 1.62  89 1.62
  29  0.018  0.337  0.832-  98 1.61  83 1.62
  30  0.989  0.670  0.172-  87 1.62  84 1.62
  31  0.647  0.641  0.503- 102 1.61  85 1.62
  32  0.343  0.994  0.475-  86 1.59 109 1.71
  33  0.996  0.339  0.497- 104 1.61  88 1.63
  34  0.337  0.351  0.480-  97 1.61  91 1.63
  35  0.986  0.642  0.505- 101 1.62  93 1.62
  36  0.650  0.008  0.514-  99 1.61  95 1.64
  37  0.119  0.243  0.129-  82 1.61  74 1.62
  38  0.886  0.745  0.853-  75 1.62 107 1.78 112 2.30
  39  0.762  0.878  0.111-  81 1.60  76 1.61
  40  0.229  0.108  0.870-  77 1.61  80 1.62
  41  0.113  0.883  0.128-  78 1.61  84 1.61
  42  0.877  0.122  0.859-  83 1.61  79 1.63
  43  0.775  0.557  0.467-  85 1.61  93 1.62
  44  0.536  0.086  0.174-  92 1.62 108 1.79 110 2.32
  45  0.417  0.211  0.467-  91 1.60  86 1.64
  46  0.903  0.453  0.196-  87 1.61  90 1.63
  47  0.785  0.207  0.453-  88 1.60  95 1.63
  48  0.548  0.456  0.194-  89 1.61  94 1.62
  49  0.450  0.896  0.807- 105 1.62  96 1.64
  50  0.210  0.428  0.541-  97 1.62 104 1.62
  51  0.124  0.555  0.801-  98 1.61 103 1.62
  52  0.579  0.788  0.519- 102 1.61  99 1.64
  53  0.450  0.534  0.800- 106 1.62 100 1.63
  54  0.202  0.777  0.544- 101 1.58 109 1.74
  55  0.999  0.258  0.994-  83 1.62  74 1.63
  56  0.991  0.730  0.003-  75 1.62  84 1.63
  57  0.736  0.714  0.999-  76 1.60 107 1.72
  58  0.257  0.267  0.991-  77 1.63  82 1.63
  59  0.268  0.999  0.003-  80 1.63  78 1.64
  60  0.661  0.589  0.333-  85 1.61  94 1.63
  61  0.633  0.050  0.341-  95 1.60 108 1.72
  62  0.441  0.108  0.324-  92 1.61  86 1.63
  63  0.921  0.587  0.335-  93 1.62  87 1.63
  64  0.939  0.345  0.329-  88 1.62  90 1.64
  65  0.407  0.323  0.321-  91 1.62  89 1.63
  66  0.360  0.950  0.666-  96 1.59 109 1.74
  67  0.355  0.409  0.653-  97 1.62 106 1.64
  68  0.058  0.406  0.665- 104 1.62  98 1.63
  69  0.575  0.897  0.666- 105 1.61  99 1.62
  70  0.568  0.659  0.660- 102 1.61 100 1.63
  71  0.055  0.640  0.671- 101 1.64 103 1.64
  72  0.733  0.011  0.993-  79 1.66  81 1.67 110 2.50
  73  0.754  0.282  0.761- 114 1.17
  74  0.997  0.228  0.101-  19 1.61  37 1.62  55 1.63   1 1.63  90 3.10  82 3.10  81 3.13  83 3.14

  75  0.002  0.760  0.896-  56 1.62  38 1.62   2 1.63  20 1.63 103 3.06  84 3.13 107 3.16 112 3.37

[...]

 102  0.557  0.666  0.552-  70 1.61  31 1.61  52 1.61  14 1.67  99 3.04  85 3.07  97 3.10
 103  0.112  0.663  0.771-  13 1.61  51 1.62  20 1.62  71 1.64  75 3.06 101 3.07  98 3.08
 104  0.095  0.431  0.560-  33 1.61  68 1.62  50 1.62  18 1.65  88 3.03  98 3.07 101 3.14
 105  0.555  0.881  0.774-  69 1.61  24 1.62  49 1.62  17 1.64  96 3.08 100 3.08  79 3.08
 106  0.338  0.426  0.761-  15 1.62  22 1.62  53 1.62  67 1.64  77 3.06 100 3.07  97 3.10
 107  0.774  0.765  0.890-  57 1.72   6 1.73  27 1.76  38 1.78  76 3.09 112 3.11 100 3.13  75 3.16
                            79 3.23
 108  0.657  0.095  0.230-  61 1.72   8 1.73  26 1.74  44 1.79  92 3.07 110 3.10  95 3.12  81 3.17
                            90 3.23
 109  0.332  0.899  0.556-  32 1.71  54 1.74  66 1.74  16 1.79  86 3.07  96 3.12  99 3.17 111 3.24

 110  0.562  0.022  0.036-  44 2.32  72 2.50  26 2.53 108 3.10  81 3.16
 111  0.319  0.672  0.479-  16 2.27  18 2.44  14 2.55 109 3.24 101 3.27  99 3.33
 112  0.783  0.590  0.761-  38 2.30 113 2.42  27 2.43 107 3.11  75 3.37
 113  0.703  0.424  0.667- 114 1.58 112 2.42
 114  0.734  0.345  0.723-  73 1.17 113 1.58

  LATTYP: Found a hexagonal cell.
 ALAT       =    13.6750001907
 C/A-ratio  =     1.0798537472

  Lattice vectors:

 A1 = (  13.6750001907,   0.0000000000,   0.0000000000)
 A2 = (  -6.8375000954,  11.8428975619,   0.0000000000)
 A3 = (   0.0000000000,   0.0000000000,  14.7670001984)

Analysis of symmetry for initial positions (statically):
 Subroutine PRICEL returns:
 Original cell was already a primitive cell.

 Routine SETGRP: Setting up the symmetry group for a
 hexagonal supercell.

 Subroutine GETGRP returns: Found  1 space group operations
 (whereof  1 operations were pure point group operations)
 out of a pool of 24 trial point group operations.

The static configuration has the point symmetry C_1 .

Analysis of symmetry for dynamics (positions and initial velocities):
 Subroutine PRICEL returns:
 Original cell was already a primitive cell.

[...]

The dynamic configuration has the point symmetry C_1 .

Analysis of structural, dynamic, and magnetic symmetry:
 Subroutine PRICEL returns:
 Original cell was already a primitive cell.

 Routine SETGRP: Setting up the symmetry group for a
 hexagonal supercell.

 Subroutine GETGRP returns: Found  1 space group operations
 (whereof  1 operations were pure point group operations)
 out of a pool of 24 trial point group operations.

The magnetic configuration has the point symmetry C_1 .

 Subroutine INISYM returns: Found  1 space group operations
 (whereof  1 operations are pure point group operations),
 and found     1 'primitive' translations

 KPOINTS: Gamma points only
  k-points in reciprocal lattice
Space group operators:
 irot       det(A)        alpha          n_x          n_y          n_z        tau_x        tau_y        tau_z
    1     1.000000     0.000000     1.000000     0.000000     0.000000     0.000000     0.000000     0.000000

 Subroutine IBZKPT_HF returns following result:

 Found      1 k-points in 1st BZ
 the following      1 k-points will be used (e.g. in the exchange kernel)
 Following reciprocal coordinates:   # in IRBZ
  0.000000  0.000000  0.000000    1.00000000   1 t-inv F

 SYSTEM =  SiO2
 POSCAR =  O  C

[...]
   -.446E+02 0.579E+02 -.614E+02   0.627E+02 -.649E+02 0.629E+02   -.161E+02 0.621E+01 -.137E+01   0.209E-02 -.714E-02 -.891E-02
   0.135E+03 -.210E+03 -.943E+01   -.146E+03 0.230E+03 0.103E+02   0.102E+02 -.182E+02 -.722E+00   -.164E-02 0.810E-02 -.965E-02
   0.156E+03 -.724E+01 -.520E+02   -.179E+03 0.904E+01 0.553E+02   0.202E+02 -.159E+01 -.286E+01   -.391E-02 0.537E-02 -.981E-02
   -.245E+03 -.319E+02 -.346E+02   0.270E+03 0.345E+02 0.377E+02   -.217E+02 -.230E+01 -.274E+01   0.482E-02 -.365E-02 -.847E-02
   -.135E+03 -.223E+03 0.286E+02   0.149E+03 0.239E+03 -.239E+02   -.131E+02 -.146E+02 -.415E+01   0.683E-03 -.138E-02 0.197E-01
   0.258E+03 0.841E+02 0.340E+02   -.278E+03 -.992E+02 -.377E+02   0.174E+02 0.133E+02 0.324E+01   -.471E-03 -.278E-02 0.179E-01
   -.150E+03 0.261E+03 0.401E+02   0.161E+03 -.283E+03 -.412E+02   -.967E+01 0.197E+02 0.101E+01   0.211E-02 0.413E-02 0.189E-01
   0.164E+03 0.230E+03 0.741E+02   -.179E+03 -.247E+03 -.821E+02   0.133E+02 0.153E+02 0.698E+01   -.229E-02 0.487E-02 0.181E-01
   0.128E+03 -.255E+03 0.428E+02   -.141E+03 0.274E+03 -.410E+02   0.118E+02 -.170E+02 -.159E+01   -.110E-02 -.162E-02 0.197E-01
   -.249E+03 -.504E+02 -.195E+02   0.270E+03 0.593E+02 0.274E+02   -.187E+02 -.789E+01 -.705E+01   0.144E-02 -.188E-02 0.187E-01
   -.134E+01 -.118E+03 -.215E+03   0.116E+01 0.125E+03 0.234E+03   0.160E+00 -.596E+01 -.173E+02   0.245E-03 0.885E-02 -.118E-01
   0.364E+02 -.564E+02 0.867E+02   -.467E+02 0.555E+02 -.102E+03   0.925E+01 0.884E+00 0.138E+02   -.113E-03 -.798E-02 -.154E-01
   0.646E+02 0.585E+02 -.172E+03   -.673E+02 -.612E+02 0.180E+03   0.233E+01 0.242E+01 -.771E+01   -.393E-02 -.542E-02 -.140E-01
   -.478E+02 -.331E+02 0.176E+03   0.491E+02 0.327E+02 -.191E+03   -.117E+01 0.352E+00 0.131E+02   0.295E-02 0.356E-02 -.152E-01
   -.643E+02 0.420E+02 -.204E+03   0.666E+02 -.437E+02 0.220E+03   -.208E+01 0.154E+01 -.135E+02   0.424E-02 -.544E-02 -.128E-01
   0.441E+02 -.344E+02 0.190E+03   -.521E+02 0.378E+02 -.209E+03   0.712E+01 -.301E+01 0.172E+02   -.300E-02 0.411E-02 -.146E-01
   0.282E+01 -.129E+03 -.984E+02   -.249E+01 0.131E+03 0.117E+03   -.299E+00 -.212E+01 -.161E+02   -.337E-03 0.904E-03 0.224E-01
   -.694E+01 0.744E+02 0.659E+02   0.180E+02 -.798E+02 -.806E+02   -.988E+01 0.487E+01 0.132E+02   -.807E-04 -.216E-02 -.101E-01
   0.154E+03 0.110E+03 -.178E+03   -.161E+03 -.117E+03 0.201E+03   0.613E+01 0.639E+01 -.198E+02   -.143E-02 0.477E-02 0.200E-01
   -.105E+03 -.559E+02 0.197E+03   0.111E+03 0.573E+02 -.217E+03   -.484E+01 -.122E+01 0.176E+02   0.330E-02 0.388E-02 -.668E-02
   -.149E+03 0.102E+03 -.948E+02   0.155E+03 -.109E+03 0.106E+03   -.572E+01 0.561E+01 -.976E+01   0.149E-02 0.401E-02 0.201E-01
   0.108E+03 -.650E+02 0.186E+03   -.112E+03 0.690E+02 -.204E+03   0.392E+01 -.349E+01 0.156E+02   -.342E-02 0.340E-02 -.654E-02
   0.189E+02 -.543E+02 -.189E+03   -.209E+02 0.567E+02 0.211E+03   0.176E+01 -.207E+01 -.193E+02   -.684E-04 -.207E-02 -.373E-02
   -.801E+01 0.212E+03 0.155E+03   0.740E+01 -.217E+03 -.164E+03   0.539E+00 0.404E+01 0.865E+01   0.253E-03 0.209E-02 0.150E-01
   -.231E+02 0.506E+00 -.256E+03   0.295E+02 0.308E+01 0.277E+03   -.563E+01 -.316E+01 -.182E+02   -.119E-02 -.119E-02 -.294E-02
   -.195E+03 -.132E+03 0.226E+03   0.204E+03 0.141E+03 -.248E+03   -.813E+01 -.750E+01 0.194E+02   0.971E-03 -.541E-02 0.159E-01
   -.582E+02 0.622E+02 -.250E+03   0.632E+02 -.649E+02 0.272E+03   -.440E+01 0.239E+01 -.196E+02   0.261E-02 -.114E-02 -.371E-02
   0.166E+03 -.190E+03 0.143E+03   -.163E+03 0.204E+03 -.152E+03   -.201E+01 -.127E+02 0.816E+01   -.848E-03 -.521E-02 0.153E-01
   0.756E+02 -.197E+03 -.337E+02   -.843E+02 0.214E+03 0.342E+02   0.766E+01 -.145E+02 -.426E+00   -.167E-02 0.763E-02 -.197E-01
   -.109E+03 0.171E+03 -.467E+02   0.115E+03 -.189E+03 0.483E+02   -.506E+01 0.159E+02 -.136E+01   0.256E-02 -.687E-02 -.203E-01
   0.107E+03 0.196E+03 0.168E+02   -.111E+03 -.218E+03 -.272E+02   0.377E+01 0.190E+02 0.927E+01   -.167E-02 -.702E-02 -.207E-01
   -.887E+02 -.211E+03 -.177E+02   0.963E+02 0.231E+03 0.175E+02   -.677E+01 -.174E+02 0.175E+00   0.193E-02 0.759E-02 -.196E-01
   -.189E+03 0.127E+02 -.168E+02   0.212E+03 -.122E+02 0.181E+02   -.200E+02 -.423E+00 -.114E+01   0.355E-02 -.152E-02 -.194E-01
   0.107E+03 -.211E+03 0.277E+02   -.117E+03 0.228E+03 -.286E+02   0.880E+01 -.145E+02 0.812E+00   -.281E-02 -.302E-03 0.115E-01
[...]
   0.801E+02 -.688E+02 0.437E+02   -.794E+02 0.735E+02 -.443E+02   -.693E+00 -.444E+01 0.515E+00   -.799E-03 -.222E-02 0.103E-01
   -.699E+02 -.540E+02 0.598E+02   0.710E+02 0.555E+02 -.592E+02   -.967E+00 -.147E+01 -.676E+00   0.689E-03 -.220E-02 0.104E-01
   0.155E+02 0.209E+01 -.592E+02   -.152E+02 -.187E+01 0.595E+02   -.221E+00 -.248E+00 -.228E+00   -.100E-02 -.323E-02 -.796E-03
   -.143E+02 0.109E+03 0.466E+02   0.131E+02 -.110E+03 -.462E+02   0.121E+01 0.863E+00 -.512E+00   0.486E-03 0.140E-02 0.103E-01
   -.512E+00 -.375E+02 -.371E+02   0.354E+00 0.380E+02 0.369E+02   0.155E+00 -.429E+00 0.227E+00   -.176E-03 -.189E-02 -.816E-03
   -.514E+02 0.527E+02 -.492E+02   0.508E+02 -.521E+02 0.501E+02   0.600E+00 -.506E+00 -.859E+00   0.152E-02 0.183E-02 -.488E-03
   0.108E+02 0.268E+01 0.169E+01   -.114E+02 -.300E+01 -.132E+00   0.597E+00 0.272E+00 -.157E+01   0.378E-05 -.361E-02 -.861E-02
   -.185E+02 0.434E+02 -.160E+02   0.195E+02 -.430E+02 0.163E+02   -.104E+01 -.462E+00 -.313E+00   -.492E-03 -.813E-03 -.134E-02
   0.785E+02 -.523E+02 0.253E+02   -.789E+02 0.531E+02 -.258E+02   0.381E+00 -.746E+00 0.456E+00   -.268E-03 -.218E-02 0.775E-02
   0.226E+03 0.964E+02 0.169E+03   -.225E+03 -.954E+02 -.164E+03   -.150E+01 -.975E+00 -.452E+01   -.299E-02 -.316E-02 -.346E-01
   0.215E+01 0.120E+02 0.558E+03   -.249E+01 -.878E+01 -.555E+03   0.313E+00 -.303E+01 -.254E+01   0.772E-03 -.808E-02 0.211E-01
   -.224E+02 0.156E+03 0.357E+02   0.215E+02 -.154E+03 -.342E+02   0.731E+00 -.122E+01 -.120E+01   0.211E-03 -.117E-01 -.522E-02
   0.109E+03 0.756E+02 0.227E+02   -.110E+03 -.773E+02 -.260E+02   0.132E+01 0.122E+01 0.316E+01   -.104E-04 0.156E-02 0.133E-01
   0.997E+02 -.100E+02 -.470E+01   -.104E+03 0.142E+02 0.164E+01   0.430E+01 -.465E+01 0.330E+01   -.153E-02 0.257E-02 0.447E-02
   0.333E+02 -.248E+02 0.597E+02   0.199E-12 0.369E-12 -.163E-12   -.281E+02 0.221E+02 -.510E+02   0.714E-03 -.931E-02 -.169E-01

 POSITION                                       TOTAL-FORCE (eV/Angst)
     11.63166      1.15519      1.74289        -0.228804      0.165106     -0.212770
     -4.63413     10.51931     12.98017         0.210771     -0.079349      0.207420
      6.80038      9.39988      1.91083         0.046997     -0.258002     -0.281943
     -0.02721      2.33645     12.77605         0.014175      0.251454      0.258077
      1.98292      1.23347      1.69098         0.231006      0.119975     -0.164625
      4.83046     10.70124     13.00042        -0.362658      0.123914      0.099579
      4.67661      5.06010      6.73278        -0.182007      0.135659     -0.255541
      8.85127      2.76831      3.20750         0.341523      0.150349      0.100851
      6.78653      1.68154      6.94518        -0.000180     -0.316441     -0.348831
      6.80950      6.39119      3.03635        -0.001474      0.212537      0.230427
      8.90599      5.04091      6.80501         0.196515      0.146198     -0.274781
      4.75472      2.79229      2.69306        -0.229906     -0.097784      0.343529
     -2.10766      9.18123     11.44436        -0.136532      0.031363     -0.080142
      1.91977      6.74629      7.73103         0.241499     -0.133757      0.296996
      0.11180      5.29860     11.38552        -0.005045     -0.153062     -0.099175
      0.04633     10.08439      7.81712         0.298925      0.224556      0.250845
      2.08346      8.94724     11.86417         0.168283      0.130859     -0.346382
     -2.12203      6.63762      7.87374        -0.178427     -0.137849      0.297923
     11.21402      3.74234      2.36654        -0.156543     -0.331983      0.018116
     -4.23500      7.91915     12.44209         0.125756      0.361242     -0.127576
      4.67262      7.96738      2.53914         0.445554     -0.110134     -0.074347
      2.14318      3.73741     12.07018        -0.399380      0.083356      0.061162
      4.25810      0.17840      2.61934        -0.101202      0.365431     -0.207349
      2.41191     11.59010     12.19242         0.151833     -0.349814      0.065190
     -2.29927     11.67432     12.36516        -0.217679     -0.318567     -0.021415
      9.24389      0.04885      2.37613         0.313463      0.233357     -0.238791
      4.57686      7.96589     12.00114        -0.416401      0.120464     -0.060403
      2.34418      3.83072      2.31709         0.203924     -0.364882     -0.012279
     -2.05627      3.99130     12.28161         0.404904     -0.025819     -0.051842
      8.93783      7.93857      2.54287        -0.433971     -0.050444     -0.045346
      4.46775      7.59681      7.42957        -0.251741     -0.296933     -0.081002
     -2.10486     11.77500      7.01204         0.355624      0.313838      0.012220
     11.29962      4.01123      7.34116        -0.197416      0.392101      0.010157
      2.21754      4.15230      7.08574         0.262453      0.311939      0.124517
      9.09413      7.60874      7.45840         0.229269     -0.338540     -0.038562
      8.83835      0.09115      7.59459        -0.367816     -0.137837     -0.147044
     -0.04186      2.88050      1.89916         0.008372     -0.120688     -0.343595
      7.02454      8.82227     12.59367         0.287556      0.086576      0.372624
      4.41849     10.40001      1.63550         0.056228      0.034271     -0.162057
      2.39143      1.27745     12.85411        -0.024593     -0.000912      0.270773
     -4.49734     10.45922      1.89669        -0.041759      0.038274     -0.271906
     11.15994      1.44847     12.68068         0.146923     -0.050764      0.342804
      6.78933      6.59237      6.89036        -0.004287     -0.051065     -0.323739
      6.74354      1.01773      2.57217        -0.277328      0.150721      0.368537
      4.25924      2.49526      6.89337         0.123697      0.129694     -0.395128
      9.25011      5.36999      2.88968        -0.102902     -0.028782      0.350936
      9.31219      2.45297      6.69100        -0.112409      0.119708     -0.213962
      4.37762      5.39512      2.85990         0.086209     -0.067029      0.309870
      0.02571     10.61665     11.91954         0.018897     -0.048065     -0.387176
     -0.05239      5.06627      7.98333         0.008577      0.110585      0.177729
     -2.09865      6.57839     11.82308        -0.095592     -0.046977     -0.366947
      2.53714      9.33095      7.67109        -0.179615     -0.170574      0.385347
      2.50538      6.32884     11.80689        -0.100817      0.038845     -0.393008
     -2.54448      9.19996      8.03903        -0.049461     -0.344958      0.174994
     11.89215      3.05928     14.68331         0.158588     -0.291695     -0.002735
      8.56091      8.64648      0.03808        -0.098640      0.317285      0.006405
      5.19005      8.45046     14.75105         0.087979      0.383107      0.276023
      1.69551      3.15656     14.62800        -0.141015     -0.356887      0.006242
     -3.16518     11.83416      0.04728        -0.404776     -0.005542     -0.011639
      5.01127      6.97925      4.91695         0.178603     -0.297932      0.015065
[...]
      3.10944      7.77650     11.37206         0.120278     -0.000544      0.085280
     -3.23380      7.80880      8.33140        -0.000704      0.065689     -0.052320
      3.05924      7.88406      8.15844         0.049669      0.030759     -0.008332
     -3.00372      7.84818     11.39201        -0.017555     -0.039800      0.070279
     -1.64752      5.10529      8.26283        -0.020359     -0.028461     -0.019103
      1.56203     10.43833     11.43418         0.006324      0.043767      0.011111
      1.70204      5.04821     11.23140         0.037964      0.000985      0.040051
      5.34966      9.05782     13.14588         0.046546     -0.052059     -0.054776
      8.32824      1.12944      3.39250        -0.039357     -0.059452     -0.039167
     -1.60929     10.65250      8.20870         0.016242      0.004421     -0.039067
      7.53289      0.26643      0.52564        -0.006410     -0.015364      0.002851
     -0.22401      7.95255      7.07358         0.001438      0.009690     -0.033625
      6.67463      6.98959     11.24475        -0.021748      0.147704      0.086429
      6.71661      5.02155      9.84436         0.364165     -0.450788      0.229601
      7.67879      4.07992     10.67660         0.666099     -0.769122      0.495142
    total drift:                                0.005831     -0.001369      0.006754

  FREE ENERGIE OF THE ION-ELECTRON SYSTEM (eV)
  free  energy   TOTEN  =     -1200.43127337 eV

  energy  without entropy=    -1200.43127337  energy(sigma->0) =    -1200.43127337

 stress matrix after NEB project (eV)
      0.00000      0.00000      0.00000
      0.00000      0.00000      0.00000
      0.00000      0.00000      0.00000
  FORCES: max atom, RMS     1.699471    0.366029
  FORCE total and by dimension    3.908122    1.111130
  Stress total and by dimension    0.000000    0.000000

 total charge

[...]

 magnetization (x)

# of ion       s       p       d       tot
    1        0.000   0.000   0.000   0.000
    2       -0.000  -0.000   0.000  -0.000
    3        0.000   0.000   0.000   0.000
    4       -0.000  -0.000   0.000  -0.000
    5        0.000   0.000   0.000   0.000
    6       -0.000  -0.000   0.000  -0.000
    7       -0.000   0.000   0.000   0.000
    8        0.000   0.000   0.000   0.000
    9       -0.000   0.000   0.000  -0.000
   10        0.000   0.000   0.000   0.000
   11        0.000  -0.000   0.000  -0.000
   12       -0.000   0.000   0.000   0.000
   13       -0.000  -0.000   0.000  -0.000
   14       -0.000  -0.000   0.000  -0.000
   15       -0.000  -0.000   0.000  -0.000
   16       -0.000   0.000   0.000  -0.000
   17       -0.000  -0.000   0.000  -0.000
   18       -0.000  -0.000   0.000  -0.000
   19        0.000   0.000   0.000   0.000
   20       -0.000  -0.000   0.000  -0.000
   21        0.000   0.000   0.000   0.000
   22       -0.000  -0.000   0.000  -0.000
   23        0.000   0.000   0.000   0.000
   24       -0.000  -0.000   0.000  -0.000
   25       -0.000  -0.000   0.000  -0.000
   26        0.000   0.000   0.000   0.000
   27        0.000  -0.000   0.000  -0.000
   28        0.000   0.000   0.000   0.000
   29       -0.000  -0.000   0.000  -0.000
   30        0.000   0.000   0.000   0.000
   31       -0.000  -0.000   0.000  -0.000
   32        0.000   0.000   0.000   0.000
   33       -0.000  -0.000   0.000  -0.000
   34        0.000   0.000   0.000   0.000
   35       -0.000   0.000   0.000  -0.000
   36       -0.000  -0.000   0.000  -0.000
   37        0.000   0.000   0.000   0.000
   38        0.000  -0.000   0.000  -0.000
   39        0.000   0.000   0.000   0.000
   40       -0.000  -0.000   0.000  -0.000
   41        0.000   0.000   0.000   0.000
   42       -0.000  -0.000   0.000  -0.000
   43       -0.000   0.000   0.000   0.000
   44        0.000   0.000   0.000   0.000
   45       -0.000   0.000   0.000   0.000
   46        0.000   0.000   0.000   0.000
   47        0.000   0.000   0.000   0.000
   48        0.000   0.000   0.000   0.000
   49       -0.000  -0.000   0.000  -0.000
   50        0.000  -0.000   0.000  -0.000
   51       -0.000  -0.000   0.000  -0.000
   52       -0.000  -0.000   0.000  -0.000
   53       -0.000  -0.000   0.000  -0.000
   54       -0.000  -0.000   0.000  -0.000
   55        0.000   0.000   0.000   0.000
   56        0.000   0.000   0.000   0.000
   57       -0.000  -0.000   0.000  -0.000
   58        0.000   0.000   0.000   0.000
   59        0.000  -0.000   0.000   0.000
   60        0.000   0.000   0.000   0.000
[...]
  100        0.000   0.000   0.000   0.000
  101        0.000   0.000   0.000   0.000
  102        0.000   0.000   0.000   0.000
  103        0.000   0.000   0.000   0.000
  104        0.000   0.000   0.000   0.000
  105        0.000   0.000   0.000   0.000
  106        0.000   0.000   0.000   0.000
  107       -0.000   0.000   0.000   0.000
  108       -0.000  -0.000   0.000  -0.000
  109        0.000   0.000   0.000   0.000
  110       -0.000  -0.000   0.000   0.000
  111       -0.000  -0.000   0.000   0.000
  112        0.000  -0.000  -0.000   0.000
  113       -0.000   0.000   0.000  -0.000
  114       -0.000   0.000   0.000   0.000
tot          0.000   0.000   0.000   0.000