 vasp.5.4.4.18Apr17-6-g9f103f2a35 (build Dec 31 2018 11:41:54) complex

 executed on             LinuxIFC date 2022.06.28  11:43:56

 INCAR:
 POTCAR:   PAW_PBE O 08Apr2002
 POTCAR:   PAW_PBE Si 05Jan2001
 POTCAR:   PAW_PBE Al 04Jan2001
 POTCAR:   PAW_PBE Ag 06Sep2000
 POTCAR:    PAW_PBE S 17Jan2003
 POTCAR:   PAW_PBE C 08Apr2002
 POTCAR:   PAW_PBE O 08Apr2002
   VRHFIN =O: s2p4

   TITEL  = PAW_PBE O 08Apr2002
   POMASS =   16.000; ZVAL   =    6.000    mass and valenz
   ENMAX  =  400.000; ENMIN  =  300.000 eV
   QCUT   =   -5.520; QGAM   =   11.041    optimization parameters

   Description
     l     E      TYP  RCUT    TYP  RCUT
     0   .000     23  1.200
     0  -.700     23  1.200
     1   .000     23  1.520
     1   .600     23  1.520
     2   .000      7  1.500

 POTCAR:   PAW_PBE Si 05Jan2001
   VRHFIN =Si: s2p2

   TITEL  = PAW_PBE Si 05Jan2001
   POMASS =   28.085; ZVAL   =    4.000    mass and valenz
   ENMAX  =  245.345; ENMIN  =  184.009 eV
   QCUT   =   -4.246; QGAM   =    8.493    optimization parameters

[...]

 POTCAR:   PAW_PBE Al 04Jan2001
   VRHFIN =Al: s2p1

[...]

 POTCAR:   PAW_PBE Ag 06Sep2000
   VRHFIN =Ag : s1 d10

   TITEL  = PAW_PBE Ag 06Sep2000
   POMASS =  107.868; ZVAL   =   11.000    mass and valenz
   ENMAX  =  249.846; ENMIN  =  187.385 eV
   QCUT   =   -4.285; QGAM   =    8.570    optimization parameters

[...]

 POTCAR:    PAW_PBE S 17Jan2003
   VRHFIN =S : s2p4

   TITEL  = PAW_PBE S 17Jan2003
   POMASS =   32.066; ZVAL   =    6.000    mass and valenz
   ENMAX  =  280.000; ENMIN  =  194.016 eV
   QCUT   =   -4.360; QGAM   =    8.721    optimization parameters

[...]

 POTCAR:   PAW_PBE C 08Apr2002
   VRHFIN =C: s2p2

   TITEL  = PAW_PBE C 08Apr2002
   POMASS =   12.011; ZVAL   =    4.000    mass and valenz
   ENMAX  =  400.000; ENMIN  =  300.000 eV
   QCUT   =   -5.516; QGAM   =   11.032    optimization parameters

   Description
     l     E      TYP  RCUT    TYP  RCUT
     0   .000     23  1.200
     0   .000     23  1.200
     1   .000     23  1.500
     1  2.500     23  1.500
     2   .000      7  1.500

 Optimization of the real space projectors (new method)

 maximal supplied QI-value         = 24.76
 optimisation between [QCUT,QGAM] = [ 10.15, 20.30] = [ 28.85,115.39] Ry
 Optimized for a Real-space Cutoff    1.51 Angstroem

   l    n(q)    QCUT    max X(q) W(low)/X(q) W(high)/X(q)  e(spline)
   0      9    10.150     4.192    0.32E-04    0.13E-04    0.13E-06
   0      9    10.150     8.473    0.18E-03    0.20E-03    0.43E-06
   1      9    10.150     2.474    0.32E-04    0.33E-04    0.64E-07
   1      9    10.150     3.912    0.13E-03    0.16E-03    0.33E-06
 Optimization of the real space projectors (new method)

[...]

   l    n(q)    QCUT    max X(q) W(low)/X(q) W(high)/X(q)  e(spline)
   0      9    10.119     5.487    0.15E-04    0.47E-05    0.66E-08
   0      9    10.119    85.627    0.51E-04    0.92E-04    0.63E-07
   1      8    10.119     3.530    0.37E-05    0.76E-05    0.28E-07
   1      8    10.119    42.714    0.16E-03    0.16E-03    0.23E-06
 Optimization of the real space projectors (new method)

 maximal supplied QI-value         = 25.13
 optimisation between [QCUT,QGAM] = [ 10.05, 20.36] = [ 28.30,116.06] Ry
 Optimized for a Real-space Cutoff    1.38 Angstroem

   l    n(q)    QCUT    max X(q) W(low)/X(q) W(high)/X(q)  e(spline)
   0      8    10.053     5.582    0.33E-04    0.15E-04    0.75E-07
   0      8    10.053    69.432    0.23E-03    0.38E-03    0.25E-06
   1      8    10.053     2.780    0.76E-04    0.11E-03    0.15E-06
   1      8    10.053     4.549    0.19E-03    0.19E-03    0.27E-06
 PAW_PBE O 08Apr2002                    :
 PAW_PBE Si 05Jan2001                   :
 PAW_PBE Al 04Jan2001                   :
 PAW_PBE Ag 06Sep2000                   :
  PAW_PBE S 17Jan2003                   :
 PAW_PBE C 08Apr2002                    :

 POSCAR: O  C
  positions in direct lattice
  velocities in cartesian coordinates
 exchange correlation table for  LEXCH =        8
   RHO(1)=    0.500       N(1)  =     2000
   RHO(2)=  100.500       N(2)  =     4000

 VTST: version 3.2, (02/03/18)

 CHAIN: initializing optimizer

 OPT: Using VASP Quick-Min optimizer
 CHAIN: Read ICHAIN            1

 POSCAR: O  C
  positions in direct lattice
  velocities in cartesian coordinates
 CHAIN: Running the Dynamical Matrix

 ion  position               nearest neighbor table
   1  0.898  0.097  0.118-  74 1.63  81 1.63
   2  0.108  0.889  0.882-  80 1.62  75 1.62
   3  0.894  0.795  0.129-  84 1.62  76 1.64
   4  0.095  0.196  0.866-  77 1.63  83 1.63
   5  0.196  0.104  0.116-  78 1.63  82 1.63
   6  0.801  0.903  0.881-  79 1.59 107 1.73
   7  0.555  0.427  0.456-  85 1.62  91 1.63
   8  0.764  0.233  0.219-  90 1.59 108 1.73
   9  0.567  0.142  0.471-  95 1.64  86 1.65
  10  0.766  0.539  0.206-  94 1.63  87 1.63
  11  0.864  0.425  0.463-  93 1.63  88 1.64
  12  0.465  0.236  0.183-  89 1.63  92 1.64
  13  0.231  0.775  0.776- 103 1.61  96 1.64
  14  0.425  0.570  0.524-  97 1.66 102 1.67 111 2.55
  15  0.233  0.451  0.774-  98 1.62 106 1.62
  16  0.429  0.851  0.530-  99 1.62 109 1.79 111 2.28
  17  0.533  0.756  0.805- 100 1.63 105 1.64
  18  0.124  0.560  0.533- 104 1.65 101 1.68 111 2.45
  19  0.977  0.315  0.161-  74 1.61  90 1.63
  20  0.022  0.670  0.841- 103 1.62  75 1.63
  21  0.678  0.673  0.173-  94 1.61  76 1.63
  22  0.313  0.316  0.819- 106 1.62  77 1.63
  23  0.318  0.015  0.179-  78 1.61  92 1.63
  24  0.664  0.981  0.826- 105 1.62  79 1.63
  25  0.326  0.987  0.838-  80 1.61  96 1.63
  26  0.677  0.004  0.162-  81 1.60 108 1.74 110 2.54
  27  0.672  0.673  0.812- 100 1.61 107 1.77 112 2.39
  28  0.332  0.323  0.158-  82 1.62  89 1.62
  29  0.018  0.336  0.832-  98 1.61  83 1.62
  30  0.987  0.671  0.173-  84 1.62  87 1.62
  31  0.647  0.641  0.504- 102 1.61  85 1.62
  32  0.343  0.994  0.476-  86 1.59 109 1.71
  33  0.995  0.338  0.498- 104 1.61  88 1.63
  34  0.337  0.350  0.482-  97 1.61  91 1.63
  35  0.986  0.643  0.505- 101 1.62  93 1.62
  36  0.650  0.008  0.516-  99 1.61  95 1.64
  37  0.117  0.243  0.130-  82 1.61  74 1.62
  38  0.889  0.753  0.854-  75 1.62 107 1.77 112 2.34
  39  0.761  0.878  0.110-  81 1.60  76 1.61
  40  0.230  0.109  0.871-  77 1.61  80 1.62
  41  0.113  0.883  0.127-  78 1.61  84 1.61
  42  0.876  0.123  0.859-  83 1.62  79 1.63
  43  0.775  0.556  0.468-  85 1.61  93 1.61
  44  0.536  0.087  0.175-  92 1.62 108 1.79 110 2.31
  45  0.416  0.210  0.468-  91 1.60  86 1.64
  46  0.902  0.453  0.195-  87 1.61  90 1.63
  47  0.784  0.206  0.452-  88 1.60  95 1.63
  48  0.546  0.456  0.195-  89 1.61  94 1.62
  49  0.448  0.894  0.807- 105 1.62  96 1.64
  50  0.210  0.428  0.540-  97 1.62 104 1.62
  51  0.121  0.555  0.802-  98 1.61 103 1.62
  52  0.580  0.788  0.520- 102 1.61  99 1.64
  53  0.451  0.535  0.801- 106 1.62 100 1.63
  54  0.202  0.776  0.544- 101 1.58 109 1.74
  55  0.998  0.258  0.995-  83 1.62  74 1.63
  56  0.990  0.728  0.003-  75 1.62  84 1.63
  57  0.734  0.713  0.999-  76 1.60 107 1.72
  58  0.256  0.266  0.992-  77 1.63  82 1.63
  59  0.272  0.002  0.005-  80 1.63  78 1.64
  60  0.661  0.590  0.334-  85 1.61  94 1.63
  61  0.631  0.049  0.342-  95 1.60 108 1.73
  62  0.442  0.109  0.325-  92 1.61  86 1.63
  63  0.920  0.585  0.335-  93 1.62  87 1.63
  64  0.939  0.347  0.330-  88 1.62  90 1.64
  65  0.405  0.323  0.323-  91 1.62  89 1.63
  66  0.359  0.949  0.667-  96 1.59 109 1.74
  67  0.353  0.410  0.655-  97 1.62 106 1.64
  68  0.060  0.407  0.665- 104 1.62  98 1.63
  69  0.575  0.897  0.667- 105 1.61  99 1.62
  70  0.567  0.660  0.661- 102 1.61 100 1.63
  71  0.054  0.641  0.670- 101 1.64 103 1.64
  72  0.731  0.012  0.994-  79 1.66  81 1.67 110 2.50
  73  0.756  0.446  0.676- 114 1.19 112 2.28
  74  0.996  0.228  0.102-  19 1.61  37 1.62  55 1.63   1 1.63  82 3.10  90 3.10  81 3.13  83 3.13

  75  0.002  0.762  0.897-  38 1.62  56 1.62   2 1.62  20 1.63 103 3.06  84 3.12 107 3.16 112 3.38

[...]

 102  0.556  0.666  0.553-  70 1.61  31 1.61  52 1.61  14 1.67  99 3.04  85 3.07  97 3.10
 103  0.109  0.663  0.772-  13 1.61  51 1.62  20 1.62  71 1.64  75 3.06 101 3.07  98 3.08
 104  0.095  0.431  0.560-  33 1.61  68 1.62  50 1.62  18 1.65  88 3.03  98 3.09 101 3.14
 105  0.554  0.881  0.775-  69 1.61  49 1.62  24 1.62  17 1.64  79 3.07  96 3.08 100 3.08
 106  0.337  0.428  0.762-  22 1.62  53 1.62  15 1.62  67 1.64  77 3.07 100 3.07  97 3.11
 107  0.773  0.765  0.891-  57 1.72   6 1.73  27 1.77  38 1.77  76 3.08 112 3.10 100 3.12  75 3.16
                            79 3.24
 108  0.656  0.095  0.231-  61 1.73   8 1.73  26 1.74  44 1.79  92 3.07 110 3.10  95 3.11  81 3.16
                            90 3.24
 109  0.332  0.899  0.556-  32 1.71  54 1.74  66 1.74  16 1.79  86 3.07  96 3.13  99 3.17 111 3.24

 110  0.561  0.023  0.037-  44 2.31  72 2.50  26 2.54 108 3.10  81 3.17
 111  0.319  0.671  0.479-  16 2.28  18 2.45  14 2.55 109 3.24 101 3.26  99 3.34
 112  0.790  0.606  0.751-  73 2.28  38 2.34  27 2.39 107 3.10  75 3.38
 113  0.738  0.240  0.705- 114 1.54
 114  0.748  0.356  0.689-  73 1.19 113 1.54

  LATTYP: Found a hexagonal cell.
 ALAT       =    13.6750001907
 C/A-ratio  =     1.0798537472

  Lattice vectors:

 A1 = (  13.6750001907,   0.0000000000,   0.0000000000)
 A2 = (  -6.8375000954,  11.8428975619,   0.0000000000)
 A3 = (   0.0000000000,   0.0000000000,  14.7670001984)

Analysis of symmetry for initial positions (statically):
 Subroutine PRICEL returns:
 Original cell was already a primitive cell.

 Routine SETGRP: Setting up the symmetry group for a
 hexagonal supercell.

 Subroutine GETGRP returns: Found  1 space group operations
 (whereof  1 operations were pure point group operations)
 out of a pool of 24 trial point group operations.

The static configuration has the point symmetry C_1 .

Analysis of symmetry for dynamics (positions and initial velocities):
 Subroutine PRICEL returns:
 Original cell was already a primitive cell.

[...]

The dynamic configuration has the point symmetry C_1 .

Analysis of structural, dynamic, and magnetic symmetry:
 Subroutine PRICEL returns:
 Original cell was already a primitive cell.

 Routine SETGRP: Setting up the symmetry group for a
 hexagonal supercell.

 Subroutine GETGRP returns: Found  1 space group operations
 (whereof  1 operations were pure point group operations)
 out of a pool of 24 trial point group operations.

The magnetic configuration has the point symmetry C_1 .

 Subroutine INISYM returns: Found  1 space group operations
 (whereof  1 operations are pure point group operations),
 and found     1 'primitive' translations

 KPOINTS: Gamma points only
  k-points in reciprocal lattice
Space group operators:
 irot       det(A)        alpha          n_x          n_y          n_z        tau_x        tau_y        tau_z
    1     1.000000     0.000000     1.000000     0.000000     0.000000     0.000000     0.000000     0.000000

 SYSTEM =  zeolite
 POSCAR =  O  C

 Startparameter for this run:
   NWRITE =      2    write-flag & timer
   PREC   = acc       normal or accurate (medium, high low for compatibility)
   ISTART =      0    job   : 0-new  1-cont  2-samecut
[...]
 DYNMAT: Loop at J=          69
 DYNMAT: Before DIRKAR
 DYNMAT: After DIRKAR
       1.734052205870615      10.623454947726199       9.851295767370710
 DYNMAT: Loop at J=          70
 DYNMAT: Before DIRKAR
 DYNMAT: After DIRKAR
       3.248735989061666       7.813091762310695       9.760604011578080
 DYNMAT: Loop at J=          71
 DYNMAT: Before DIRKAR
 DYNMAT: After DIRKAR
      -3.642176154384502       7.589102879237058       9.900300274515946
 DYNMAT: Loop at J=          72
 DYNMAT: Before DIRKAR
 DYNMAT: After DIRKAR
       9.918613633312194       0.141276201819706      14.673679592046089
 DYNMAT: Loop at J=          73
 DYNMAT: Before DIRKAR
 DYNMAT: After DIRKAR
       7.284720758425454       5.280364409429857       9.989734548150434
 DYNMAT: Loop at J=          74
 DYNMAT: Before DIRKAR
 DYNMAT: After DIRKAR
      12.064418696241098       2.696362057569316       1.501393574559678
 DYNMAT: Loop at J=          75
 DYNMAT: Before DIRKAR
 DYNMAT: After DIRKAR
      -5.176526472054037       9.023161275209043      13.240432016059707
 DYNMAT: Loop at J=          76
 DYNMAT: Before DIRKAR
 DYNMAT: After DIRKAR
       5.256185432041550       9.038781294138749       1.472064688066280
 DYNMAT: Loop at J=          77
 DYNMAT: Before DIRKAR
 DYNMAT: After DIRKAR
       1.535001326943724       2.623007679409145      13.112518172600090
 DYNMAT: Loop at J=          78
 DYNMAT: Before DIRKAR
 DYNMAT: After DIRKAR
       3.051071614872062       0.020873702396557       1.573933821949433
 DYNMAT: Loop at J=          79
 DYNMAT: Before DIRKAR
 DYNMAT: After DIRKAR
      10.530274630994855       0.009151472723322      13.132924817475310
 DYNMAT: Loop at J=          80
 DYNMAT: Before DIRKAR
 DYNMAT: After DIRKAR
      -3.620828860456716      11.795284735741237      13.277001381348313
 DYNMAT: Loop at J=          81
 DYNMAT: Before DIRKAR
 DYNMAT: After DIRKAR
       3.686890263687292      11.817577704881275       1.457527246815622
 DYNMAT: Loop at J=          82
 DYNMAT: Before DIRKAR
 DYNMAT: After DIRKAR
       1.488612890726742       2.761456206186502       1.451436003729010
 DYNMAT: Loop at J=          83
 DYNMAT: Before DIRKAR
 DYNMAT: After DIRKAR
      12.088374330276217       2.684284510062838      13.133688148338189
 DYNMAT: Loop at J=          84
 DYNMAT: Before DIRKAR
 DYNMAT: After DIRKAR
       8.346901443635982       9.106442681673993       1.586677255519680
 DYNMAT: Loop at J=          85
 DYNMAT: Before DIRKAR
 DYNMAT: After DIRKAR
       5.237785571076157       6.548075486624106       6.475217484696328
 DYNMAT: Loop at J=          86
 DYNMAT: Before DIRKAR
 DYNMAT: After DIRKAR
       5.273794827683541       1.305762805299177       6.433299572807887
 DYNMAT: Loop at J=          87
 DYNMAT: Before DIRKAR
 DYNMAT: After DIRKAR
       8.374046144193695       6.640990372530440       3.361779469557081
 DYNMAT: Loop at J=          88
 DYNMAT: Before DIRKAR
 DYNMAT: After DIRKAR
       9.976258557155983       3.877300641486224       6.400495253555659
 DYNMAT: Loop at J=          89
 DYNMAT: Before DIRKAR
 DYNMAT: After DIRKAR
       3.703240383768081       3.957159414672082       3.185341101534827
 DYNMAT: Loop at J=          90
 DYNMAT: Before DIRKAR
 DYNMAT: After DIRKAR
       9.905111002264533       3.948888745382560       3.340376870661846
 DYNMAT: Loop at J=          91
 DYNMAT: Before DIRKAR
 DYNMAT: After DIRKAR
       3.633661109453404       3.863125189919374       6.357573268020219
 DYNMAT: Loop at J=          92
 DYNMAT: Before DIRKAR
 DYNMAT: After DIRKAR
       5.261784594438355       1.325059923363201       3.199950883643695
 DYNMAT: Loop at J=          93
 DYNMAT: Before DIRKAR
 DYNMAT: After DIRKAR
       8.350750631656217       6.528948971092519       6.506034075716108
 DYNMAT: Loop at J=          94
 DYNMAT: Before DIRKAR
 DYNMAT: After DIRKAR
       5.224314898231415       6.683588783158225       3.349417575731484
 DYNMAT: Loop at J=          95
 DYNMAT: Before DIRKAR
 DYNMAT: After DIRKAR
       8.291828884905074       1.189226747574612       6.521282923203866
 DYNMAT: Loop at J=          96
 DYNMAT: Before DIRKAR
 DYNMAT: After DIRKAR
      -1.510360157835855      10.687964421886402      11.343648443407812
 DYNMAT: Loop at J=          97
 DYNMAT: Before DIRKAR
 DYNMAT: After DIRKAR
       1.545445941703577       5.178914146356790       8.147083281185067
 DYNMAT: Loop at J=          98
 DYNMAT: Before DIRKAR
 DYNMAT: After DIRKAR
      -1.505427020616798       5.174189628155544      11.349926125298852
 DYNMAT: Loop at J=          99
 DYNMAT: Before DIRKAR
 DYNMAT: After DIRKAR
       1.556567027772590      10.521537681837135       8.239873164390460
 DYNMAT: Loop at J=         100
 DYNMAT: Before DIRKAR
 DYNMAT: After DIRKAR
       3.118636524653410       7.777719661367114      11.381343701015409
 DYNMAT: Loop at J=         101
 DYNMAT: Before DIRKAR
 DYNMAT: After DIRKAR
      -3.239072571583177       7.807824313220525       8.329978910707830
 DYNMAT: Loop at J=         102
 DYNMAT: Before DIRKAR
 DYNMAT: After DIRKAR
       3.058050218429019       7.883600181433458       8.166263441599357
 DYNMAT: Loop at J=         103
 DYNMAT: Before DIRKAR
 DYNMAT: After DIRKAR
      -3.034771609416869       7.849582269404239      11.397268059078801
 DYNMAT: Loop at J=         104
 DYNMAT: Before DIRKAR
 DYNMAT: After DIRKAR
      -1.649208398067862       5.104093113945917       8.267761290477090
 DYNMAT: Loop at J=         105
 DYNMAT: Before DIRKAR
 DYNMAT: After DIRKAR
       1.558410820943410      10.433737073492718      11.444954614233477
 DYNMAT: Loop at J=         106
 DYNMAT: Before DIRKAR
 DYNMAT: After DIRKAR
       1.686696780775502       5.063535467179478      11.255212486373491
 DYNMAT: Loop at J=         107
 DYNMAT: Before DIRKAR
 DYNMAT: After DIRKAR
       5.336522069972896       9.064669583570051      13.161685670774354
 DYNMAT: Loop at J=         108
 DYNMAT: Before DIRKAR
 DYNMAT: After DIRKAR
       8.316338067295190       1.126131969100223       3.410553714607370
 DYNMAT: Loop at J=         109
 DYNMAT: Before DIRKAR
 DYNMAT: After DIRKAR
      -1.609167891091022      10.648225363797147       8.217630924322624
 DYNMAT: Loop at J=         110
 DYNMAT: Before DIRKAR
 DYNMAT: After DIRKAR
       7.506411000612584       0.277206660674614       0.541969201323519
 DYNMAT: Loop at J=         111
 DYNMAT: Before DIRKAR
 DYNMAT: After DIRKAR
      -0.228494901472596       7.949830538031684       7.076998518651267
 DYNMAT: Loop at J=         112
 DYNMAT: Before DIRKAR
 DYNMAT: After DIRKAR
       6.660983370047658       7.173062946612951      11.096972433159285
 DYNMAT: Loop at J=         113
 DYNMAT: Before DIRKAR
 DYNMAT: After DIRKAR
       8.444484540990457       2.843202360316308      10.412784738437946
 DYNMAT: Loop at J=         114
 DYNMAT: Before DIRKAR
 DYNMAT: After DIRKAR
       7.787197771305857       4.219364727050436      10.180829420482027
 HIPREC TOTAL-FORCE (eV/A)
       0.001256081356816       0.001337410116490      -0.000194194256936
       0.000156361663970      -0.000711228888778       0.000493826453150
      -0.001396448233288       0.000677558319685       0.001397391791197
      -0.000641127184450       0.000282876560550      -0.001015987764988
       0.000294610427016       0.000367233225059      -0.000300541203230
       0.000015128059068       0.001461693412817      -0.000822392338044
       0.000007431059101       0.000597789750150      -0.001817006690139
      -0.000328726479659       0.000299369987855      -0.001045605063412
       0.000783457920166      -0.000056577714425       0.000149912849992
       0.000536502870004       0.000251997518576      -0.000183733677556
       0.000834681157998      -0.000920421782917      -0.000446682016121
      -0.000273006937197       0.000494941945322      -0.000047289046644
      -0.000403173579577       0.000145691976706      -0.001086704321922
       0.000120163796627       0.000414575198041       0.000239105744324
      -0.001345555092937      -0.000464521431471      -0.001193039518342
       0.000660757902899       0.000355558365292      -0.000568293047990
       0.000812512407996      -0.000001982311138      -0.000291886666058
       0.000407883924033       0.000591691868328       0.000988162349481
       0.000696578132927      -0.000438595466596      -0.000630171996130
       0.001526923942629       0.000056265221477       0.001134558736770
      -0.000028421821999       0.000015151411454      -0.002180154032638
       0.000434600157044      -0.000075026537176       0.000422463412943
      -0.000285733493358      -0.000167713909058       0.000123063694776
       0.001869963090452       0.001235675938603       0.000376957980291
       0.000972154272644       0.000119532161693      -0.000722000630660
      -0.000954896841074       0.000658892627905       0.000317622839998
       0.000721538719137       0.000133804428729       0.000369426504508
       0.000690711174281       0.000544874078724      -0.000622349565201
       0.000138204637317       0.001520927402906       0.000258411807190
       0.000271295908487      -0.000373246402584      -0.000000645441289
      -0.000076433558398       0.000197198103475      -0.000406503348056
      -0.000274464086414       0.001027350393817      -0.000141335276085
       0.000136879685061       0.000541625083153      -0.000806848408581
       0.000021333741885       0.000548764692354      -0.000259612834532
       0.000800299130139       0.000492363669059       0.000442904776659
       0.000317199031514      -0.000060080239288      -0.000047823653468
      -0.000820607966592      -0.000199737630894       0.000756013451325
       0.001520774703137       0.000433530455604      -0.001836640664153
       0.000543389332236      -0.001808129645085      -0.000557595216863
      -0.000140669627778       0.000753545769678       0.000051758845419
       0.000856756960137       0.000730569119805      -0.001006094847186
      -0.000290427994331      -0.000071813856668      -0.000483344310271
       0.000302628907614       0.000372565403335      -0.000438428810237
       0.000725718495750      -0.000424380982808      -0.000055802866990
       0.000552016529291       0.000486088792729       0.000105533708538
       0.000934127540454      -0.000203109367803      -0.000020322629929
       0.000596782569324       0.001265740542003       0.000956657312843
      -0.000190988051125      -0.001203369656156       0.000648153122510
      -0.000727662935215       0.000044700476446       0.000265796129497
      -0.000630070379264       0.000103392965556       0.001124587654589
       0.001595659628716       0.000244249398833      -0.000750380917744
      -0.000150825245848       0.000294857388422      -0.000288362367198
       0.000183835025095       0.000592168203042      -0.000299824432642
      -0.001199260789597      -0.000985434883298       0.001657836515405
       0.001043379544696      -0.000227562900980       0.000641527106379
      -0.001849092442600       0.000338132965791      -0.001494509492438
       0.002801322532956       0.001061656233997       0.000290027010405
      -0.000693271309604       0.000043014267835      -0.000189198098013
       0.000717355662134       0.000733919911026       0.000572063313619
       0.000732091000772       0.001579475962373      -0.000025864835030
[...]
      -0.000119102443047       0.000330361879006       0.000361112275664
      -0.000468277356270       0.001599287865618       0.000677673691495
       0.000317901849353      -0.000248068918478       0.000427193363357
       0.000615066758510       0.000890245347661       0.000539951797595
       0.000639953842391       0.000219300794711       0.000617669120184
      -0.000004131566799      -0.000932615873686       0.000054535393984
       0.001329553010349      -0.000032581247844      -0.000149585126997
       0.001046452455428       0.000115898569466      -0.001607203630404
       0.000374005703430      -0.000154559597318      -0.001130072947001
       0.000220269440232       0.000839394116900       0.000299601287080
      -0.000096735146665      -0.000419999334149      -0.000001780452537
       0.000072484711753       0.000082925934480       0.000431599384595
       0.001657410827766      -0.002254378092328       0.001585847964607
      -0.007726214142621      -0.011758244237196       0.012053546917260
      -0.015866966611588       0.005449393805777      -0.005031182347283
DYMAT: ------------------------------
DYMAT: DEGREE OF FREEDOM  73  1  1
DYMAT: ------------------------------
DYMAT: DEGREE OF FREEDOM  73  2  2
DYMAT: ------------------------------
DYMAT: DEGREE OF FREEDOM  73  3  3
DYMAT: ------------------------------
DYMAT: DEGREE OF FREEDOM 113  1  4
DYMAT: ------------------------------
DYMAT: DEGREE OF FREEDOM 113  2  5
DYMAT: ------------------------------
DYMAT: DEGREE OF FREEDOM 113  3  6
DYMAT: ------------------------------
DYMAT: DEGREE OF FREEDOM 114  1  7
DYMAT: ------------------------------
DYMAT: DEGREE OF FREEDOM 114  2  8
DYMAT: ------------------------------
DYMAT: DEGREE OF FREEDOM 114  3  9
DYMAT: LEAVING
 stress matrix after NEB project (eV)
    -22.51625     -0.40940      0.40549
     -0.40940    -24.55366     -0.64906
      0.40549     -0.64906    -28.33718
  FORCES: max atom, RMS     0.020739    0.003346
  FORCE total and by dimension    0.035728    0.016729
  Stress total and by dimension   43.753473   28.337183

 total charge

[...]

 magnetization (x)

# of ion       s       p       d       tot
    1       -0.000   0.000   0.000  -0.000
    2        0.000  -0.000   0.000  -0.000
    3        0.000   0.000   0.000   0.000
    4       -0.000   0.000   0.000  -0.000
    5       -0.000  -0.000   0.000  -0.000
    6       -0.000  -0.000   0.000  -0.000
    7        0.000  -0.000   0.000  -0.000
    8       -0.000  -0.000   0.000  -0.000
    9        0.000  -0.000   0.000  -0.000
   10       -0.000  -0.000   0.000  -0.000
   11        0.000  -0.000   0.000  -0.000
   12        0.000  -0.000   0.000  -0.000
   13       -0.000  -0.000   0.000  -0.000
   14        0.000  -0.000   0.000  -0.000
   15       -0.000  -0.000   0.000  -0.000
   16        0.000  -0.000   0.000  -0.000
   17        0.000  -0.000   0.000  -0.000
   18        0.000  -0.000   0.000  -0.000
   19       -0.000  -0.000   0.000  -0.000
   20        0.000   0.000   0.000   0.000
   21        0.000   0.000   0.000   0.000
   22       -0.000  -0.000   0.000  -0.000
   23       -0.000  -0.000   0.000  -0.000
   24        0.000   0.000   0.000   0.000
   25        0.000  -0.000   0.000  -0.000
   26        0.000  -0.000   0.000  -0.000
   27        0.000  -0.000   0.000  -0.000
   28       -0.000  -0.000   0.000  -0.000
   29        0.000  -0.000   0.000   0.000
   30        0.000   0.000   0.000   0.000
   31        0.000   0.000   0.000   0.000
   32        0.000   0.000   0.000   0.000
   33        0.000  -0.000   0.000  -0.000
   34        0.000  -0.000   0.000   0.000
   35       -0.000   0.000   0.000   0.000
   36       -0.000  -0.000   0.000  -0.000
   37        0.000   0.000   0.000   0.000
   38        0.000   0.000   0.000   0.000
   39        0.000   0.000   0.000   0.000
   40       -0.000  -0.000   0.000  -0.000
   41        0.000   0.000   0.000   0.000
   42       -0.000  -0.000   0.000  -0.000
   43       -0.000  -0.000   0.000  -0.000
   44       -0.000  -0.000   0.000  -0.000
   45        0.000  -0.000   0.000  -0.000
   46       -0.000  -0.000   0.000  -0.000
   47        0.000   0.000   0.000   0.000
   48       -0.000  -0.000   0.000  -0.000
   49        0.000  -0.000   0.000  -0.000
   50       -0.000  -0.000   0.000  -0.000
   51        0.000  -0.000   0.000  -0.000
   52       -0.000   0.000   0.000   0.000
   53        0.000  -0.000   0.000  -0.000
   54        0.000  -0.000   0.000  -0.000
   55        0.000  -0.000   0.000  -0.000
   56       -0.000  -0.000   0.000  -0.000
   57        0.000   0.000   0.000   0.000
   58       -0.000  -0.000   0.000  -0.000
   59       -0.000  -0.000   0.000  -0.000
   60        0.000   0.000   0.000   0.000
[...]
  100        0.000   0.000   0.000   0.000
  101       -0.000   0.000   0.000   0.000
  102       -0.000  -0.000   0.000  -0.000
  103        0.000   0.000   0.000   0.000
  104       -0.000   0.000   0.000  -0.000
  105        0.000   0.000   0.000   0.000
  106       -0.000  -0.000   0.000  -0.000
  107        0.000   0.000   0.000   0.000
  108        0.000  -0.000   0.000  -0.000
  109       -0.000  -0.000   0.000  -0.000
  110       -0.000   0.000  -0.000  -0.000
  111       -0.000  -0.000  -0.000  -0.000
  112       -0.000   0.000   0.000  -0.000
  113       -0.000  -0.000   0.000  -0.000
  114        0.000   0.000   0.000   0.000
tot          0.000  -0.000  -0.000  -0.000