 vasp.5.4.4.18Apr17-6-g9f103f2a35 (build Dec 31 2018 11:41:54) complex

 executed on             LinuxIFC date 2022.04.26  16:30:32

 INCAR:
 POTCAR:   PAW_PBE O 08Apr2002
 POTCAR:   PAW_PBE Si 05Jan2001
 POTCAR:   PAW_PBE Al 04Jan2001
 POTCAR:   PAW_PBE Ag 06Sep2000
 POTCAR:   PAW_PBE C 08Apr2002
 POTCAR:   PAW_PBE O 08Apr2002
   VRHFIN =O: s2p4

   TITEL  = PAW_PBE O 08Apr2002
   POMASS =   16.000; ZVAL   =    6.000    mass and valenz
   ENMAX  =  400.000; ENMIN  =  300.000 eV
   QCUT   =   -5.520; QGAM   =   11.041    optimization parameters

   Description
     l     E      TYP  RCUT    TYP  RCUT
     0   .000     23  1.200
     0  -.700     23  1.200
     1   .000     23  1.520
     1   .600     23  1.520
     2   .000      7  1.500

 POTCAR:   PAW_PBE Si 05Jan2001
   VRHFIN =Si: s2p2

   TITEL  = PAW_PBE Si 05Jan2001
   POMASS =   28.085; ZVAL   =    4.000    mass and valenz
   ENMAX  =  245.345; ENMIN  =  184.009 eV
   QCUT   =   -4.246; QGAM   =    8.493    optimization parameters

[...]

 POTCAR:   PAW_PBE Al 04Jan2001
   VRHFIN =Al: s2p1

   TITEL  = PAW_PBE Al 04Jan2001
   POMASS =   26.982; ZVAL   =    3.000    mass and valenz
   ENMAX  =  240.300; ENMIN  =  180.225 eV
   QCUT   =   -4.203; QGAM   =    8.405    optimization parameters

[...]

 POTCAR:   PAW_PBE Ag 06Sep2000
   VRHFIN =Ag : s1 d10

   TITEL  = PAW_PBE Ag 06Sep2000
   POMASS =  107.868; ZVAL   =   11.000    mass and valenz
   ENMAX  =  249.846; ENMIN  =  187.385 eV
   QCUT   =   -4.285; QGAM   =    8.570    optimization parameters

[...]

 POTCAR:   PAW_PBE C 08Apr2002
   VRHFIN =C: s2p2

   TITEL  = PAW_PBE C 08Apr2002
   POMASS =   12.011; ZVAL   =    4.000    mass and valenz
   ENMAX  =  400.000; ENMIN  =  300.000 eV
   QCUT   =   -5.516; QGAM   =   11.032    optimization parameters

   Description
     l     E      TYP  RCUT    TYP  RCUT
     0   .000     23  1.200
     0   .000     23  1.200
     1   .000     23  1.500
     1  2.500     23  1.500
     2   .000      7  1.500

 Optimization of the real space projectors (new method)

 maximal supplied QI-value         = 24.76
 optimisation between [QCUT,QGAM] = [ 10.15, 20.30] = [ 28.85,115.39] Ry
 Optimized for a Real-space Cutoff    1.51 Angstroem

   l    n(q)    QCUT    max X(q) W(low)/X(q) W(high)/X(q)  e(spline)
   0      9    10.150     4.192    0.32E-04    0.13E-04    0.13E-06
   0      9    10.150     8.473    0.18E-03    0.20E-03    0.43E-06
   1      9    10.150     2.474    0.32E-04    0.33E-04    0.64E-07
   1      9    10.150     3.912    0.13E-03    0.16E-03    0.33E-06
 Optimization of the real space projectors (new method)

[...]

   l    n(q)    QCUT    max X(q) W(low)/X(q) W(high)/X(q)  e(spline)
   2      8    10.195     3.831    0.11E-04    0.20E-04    0.48E-07
   2      8    10.195    20.184    0.23E-03    0.42E-03    0.20E-06
   0      9    10.195    16.770    0.13E-04    0.90E-05    0.63E-08
   0      9    10.195    80.708    0.19E-03    0.15E-03    0.44E-07
   1      9    10.195     6.696    0.12E-04    0.45E-04    0.30E-07
   1      9    10.195     8.973    0.12E-03    0.15E-03    0.13E-06
 Optimization of the real space projectors (new method)

 maximal supplied QI-value         = 25.13
 optimisation between [QCUT,QGAM] = [ 10.05, 20.36] = [ 28.30,116.06] Ry
 Optimized for a Real-space Cutoff    1.38 Angstroem

   l    n(q)    QCUT    max X(q) W(low)/X(q) W(high)/X(q)  e(spline)
   0      8    10.053     5.582    0.33E-04    0.15E-04    0.75E-07
   0      8    10.053    69.432    0.23E-03    0.38E-03    0.25E-06
   1      8    10.053     2.780    0.76E-04    0.11E-03    0.15E-06
   1      8    10.053     4.549    0.19E-03    0.19E-03    0.27E-06
 PAW_PBE O 08Apr2002                    :
 PAW_PBE Si 05Jan2001                   :
 PAW_PBE Al 04Jan2001                   :
 PAW_PBE Ag 06Sep2000                   :
 PAW_PBE C 08Apr2002                    :

 POSCAR: O  C
  positions in direct lattice
  velocities in cartesian coordinates
 exchange correlation table for  LEXCH =        8
   RHO(1)=    0.500       N(1)  =     2000
   RHO(2)=  100.500       N(2)  =     4000

 VTST: version 3.2, (02/03/18)

 CHAIN: initializing optimizer

 OPT: Using VASP Dynamics algorithm
 CHAIN: Read ICHAIN            0

 POSCAR: O  C
  positions in direct lattice
  velocities in cartesian coordinates

 ion  position               nearest neighbor table
   1  0.897  0.097  0.119-  75 1.63  82 1.63
   2  0.108  0.888  0.883-  81 1.62  76 1.62
   3  0.892  0.794  0.128-  85 1.62  77 1.64
   4  0.093  0.195  0.866-  78 1.63  84 1.63
   5  0.194  0.103  0.116-  79 1.63  83 1.63
   6  0.798  0.903  0.882-  80 1.59 108 1.73
   7  0.552  0.427  0.456-  86 1.62  92 1.63
   8  0.762  0.234  0.219-  91 1.59 109 1.73
   9  0.565  0.140  0.470-  96 1.64  87 1.64
  10  0.764  0.538  0.204-  95 1.63  88 1.63
  11  0.862  0.424  0.463-  94 1.63  89 1.64
  12  0.463  0.236  0.183-  90 1.63  93 1.64
  13  0.228  0.775  0.777- 104 1.61  97 1.64
  14  0.423  0.569  0.524-  98 1.66 103 1.66 112 2.55
  15  0.231  0.452  0.774- 107 1.62  99 1.62
  16  0.427  0.851  0.530- 100 1.62 110 1.79 112 2.28
  17  0.531  0.756  0.804- 101 1.63 106 1.64
  18  0.121  0.559  0.534- 105 1.65 102 1.68 112 2.46
  19  0.975  0.315  0.161-  75 1.61  91 1.63
  20  0.018  0.669  0.840- 104 1.62  76 1.63
  21  0.677  0.673  0.174-  95 1.61  77 1.63
  22  0.311  0.316  0.819- 107 1.62  78 1.63
  23  0.316  0.015  0.179-  79 1.61  93 1.63
  24  0.661  0.980  0.827- 106 1.62  80 1.63
  25  0.326  0.987  0.838-  81 1.61  97 1.63
  26  0.675  0.004  0.162-  82 1.60 109 1.74 111 2.55
  27  0.672  0.673  0.811- 101 1.61 108 1.77 113 2.40
  28  0.330  0.323  0.157-  83 1.62  90 1.62
  29  0.017  0.337  0.832-  99 1.61  84 1.62
  30  0.986  0.671  0.175-  88 1.62  85 1.62
  31  0.645  0.641  0.503- 103 1.61  86 1.62
  32  0.340  0.993  0.475-  87 1.59 110 1.71
  33  0.993  0.337  0.498- 105 1.61  89 1.63
  34  0.334  0.349  0.482-  98 1.61  92 1.63
  35  0.984  0.643  0.504- 102 1.62  94 1.62
  36  0.649  0.007  0.514- 100 1.61  96 1.64
  37  0.116  0.243  0.130-  83 1.61  75 1.62
  38  0.889  0.756  0.856-  76 1.62 108 1.77 113 2.32
  39  0.759  0.878  0.110-  82 1.60  77 1.61
  40  0.228  0.108  0.870-  78 1.61  81 1.62
  41  0.111  0.883  0.126-  79 1.61  85 1.61
  42  0.874  0.123  0.859-  84 1.61  80 1.63
  43  0.771  0.553  0.470-  86 1.61  94 1.62
  44  0.534  0.087  0.175-  93 1.62 109 1.79 111 2.31
  45  0.415  0.210  0.467-  92 1.60  87 1.64
  46  0.902  0.454  0.196-  88 1.61  91 1.63
  47  0.782  0.206  0.453-  89 1.60  96 1.63
  48  0.544  0.456  0.196-  90 1.61  95 1.62
  49  0.445  0.892  0.806- 106 1.62  97 1.64
  50  0.208  0.428  0.540-  98 1.62 105 1.62
  51  0.118  0.555  0.801-  99 1.61 104 1.62
  52  0.577  0.787  0.520- 103 1.61 100 1.64
  53  0.450  0.535  0.801- 107 1.62 101 1.63
  54  0.201  0.775  0.542- 102 1.58 110 1.74 112 2.77
  55  0.996  0.258  0.995-  84 1.62  75 1.63
  56  0.988  0.726  0.003-  76 1.62  85 1.63
  57  0.731  0.712  1.000-  77 1.60 108 1.72
  58  0.254  0.265  0.991-  78 1.63  83 1.63
  59  0.271  0.004  0.005-  81 1.63  79 1.64
  60  0.663  0.589  0.334-  86 1.61  95 1.63
  61  0.630  0.048  0.341-  96 1.60 109 1.72
  62  0.440  0.108  0.325-  93 1.61  87 1.63
  63  0.914  0.583  0.336-  94 1.62  88 1.63
  64  0.937  0.346  0.330-  89 1.62  91 1.64
  65  0.402  0.322  0.322-  92 1.62  90 1.63
  66  0.355  0.948  0.667-  97 1.59 110 1.74
  67  0.351  0.410  0.655-  98 1.62 107 1.64
  68  0.057  0.405  0.666- 105 1.62  99 1.63
  69  0.574  0.897  0.667- 106 1.61 100 1.62
  70  0.566  0.658  0.660- 103 1.61 101 1.63
  71  0.052  0.642  0.670- 102 1.64 104 1.64
  72  0.730  0.013  0.994-  80 1.66  82 1.67 111 2.49
  73  0.611  0.286  0.635- 114 1.17
  74  0.773  0.458  0.672- 114 1.19 113 2.32
  75  0.994  0.227  0.102-  19 1.61  37 1.62  55 1.63   1 1.63  83 3.10  91 3.10  82 3.12  84 3.14

  76  0.001  0.762  0.897-  38 1.62  56 1.62   2 1.62  20 1.63 104 3.06  85 3.11 108 3.18 113 3.33

[...]

 103  0.554  0.665  0.553-  70 1.61  31 1.61  52 1.61  14 1.66 100 3.04  86 3.07  98 3.10
 104  0.107  0.663  0.771-  13 1.61  51 1.62  20 1.62  71 1.64  76 3.06 102 3.08  99 3.09
 105  0.092  0.430  0.560-  33 1.61  68 1.62  50 1.62  18 1.65  89 3.03  99 3.08 102 3.14
 106  0.553  0.881  0.775-  69 1.61  49 1.62  24 1.62  17 1.64  80 3.07 101 3.09  97 3.09
 107  0.335  0.428  0.762-  22 1.62  15 1.62  53 1.62  67 1.64 101 3.07  78 3.07  98 3.11
 108  0.770  0.765  0.892-  57 1.72   6 1.73  38 1.77  27 1.77  77 3.07 113 3.09 101 3.12  76 3.18
                            80 3.24
 109  0.654  0.095  0.230-  61 1.72   8 1.73  26 1.74  44 1.79  93 3.07 111 3.10  96 3.11  82 3.16
                            91 3.24
 110  0.330  0.898  0.556-  32 1.71  66 1.74  54 1.74  16 1.79  87 3.07  97 3.13 100 3.18 112 3.23

 111  0.560  0.024  0.036-  44 2.31  72 2.49  26 2.55 109 3.10  82 3.17
 112  0.317  0.671  0.480-  16 2.28  18 2.46  14 2.55  54 2.77 110 3.23 102 3.26 100 3.34
 113  0.799  0.620  0.745-  38 2.32  74 2.32  27 2.40 108 3.09  76 3.33
 114  0.692  0.372  0.653-  73 1.17  74 1.19

  LATTYP: Found a hexagonal cell.
 ALAT       =    13.6750001907
 C/A-ratio  =     1.0798537472

  Lattice vectors:

 A1 = (  13.6750001907,   0.0000000000,   0.0000000000)
 A2 = (  -6.8375000954,  11.8428975619,   0.0000000000)
 A3 = (   0.0000000000,   0.0000000000,  14.7670001984)

Analysis of symmetry for initial positions (statically):
 Subroutine PRICEL returns:
 Original cell was already a primitive cell.

 Routine SETGRP: Setting up the symmetry group for a
 hexagonal supercell.

 Subroutine GETGRP returns: Found  1 space group operations
 (whereof  1 operations were pure point group operations)
 out of a pool of 24 trial point group operations.

The static configuration has the point symmetry C_1 .

Analysis of symmetry for dynamics (positions and initial velocities):
 Subroutine PRICEL returns:
 Original cell was already a primitive cell.

[...]

The dynamic configuration has the point symmetry C_1 .

Analysis of structural, dynamic, and magnetic symmetry:
 Subroutine PRICEL returns:
 Original cell was already a primitive cell.

 Routine SETGRP: Setting up the symmetry group for a
 hexagonal supercell.

 Subroutine GETGRP returns: Found  1 space group operations
 (whereof  1 operations were pure point group operations)
 out of a pool of 24 trial point group operations.

The magnetic configuration has the point symmetry C_1 .

 Subroutine INISYM returns: Found  1 space group operations
 (whereof  1 operations are pure point group operations),
 and found     1 'primitive' translations

 KPOINTS: Gamma points only
  k-points in reciprocal lattice
Space group operators:
 irot       det(A)        alpha          n_x          n_y          n_z        tau_x        tau_y        tau_z
    1     1.000000     0.000000     1.000000     0.000000     0.000000     0.000000     0.000000     0.000000

 Subroutine IBZKPT_HF returns following result:

 Found      1 k-points in 1st BZ
 the following      1 k-points will be used (e.g. in the exchange kernel)
 Following reciprocal coordinates:   # in IRBZ
  0.000000  0.000000  0.000000    1.00000000   1 t-inv F

 SYSTEM =  SiO2
 POSCAR =  O  C

[...]
   -.443E+02 0.762E+02 -.784E+02   0.627E+02 -.833E+02 0.800E+02   -.164E+02 0.637E+01 -.133E+01   0.136E-02 -.551E-02 -.774E-02
   0.134E+03 -.212E+03 -.106E+01   -.146E+03 0.233E+03 0.147E+01   0.101E+02 -.183E+02 -.354E+00   -.108E-02 0.581E-02 -.715E-02
   0.187E+03 0.406E+00 -.466E+02   -.209E+03 0.128E+01 0.497E+02   0.196E+02 -.149E+01 -.275E+01   -.322E-02 0.372E-02 -.891E-02
   -.243E+03 -.368E+02 -.350E+02   0.267E+03 0.403E+02 0.395E+02   -.212E+02 -.313E+01 -.403E+01   0.327E-02 -.282E-02 -.588E-02
   -.122E+03 -.231E+03 0.363E+02   0.136E+03 0.248E+03 -.319E+02   -.130E+02 -.148E+02 -.390E+01   0.191E-03 -.799E-03 0.158E-01
   0.261E+03 0.945E+02 0.393E+02   -.280E+03 -.110E+03 -.432E+02   0.175E+02 0.133E+02 0.335E+01   -.343E-03 -.158E-02 0.152E-01
   -.155E+03 0.268E+03 0.296E+02   0.166E+03 -.291E+03 -.305E+02   -.970E+01 0.200E+02 0.733E+00   0.163E-02 0.253E-02 0.156E-01
   0.173E+03 0.232E+03 0.709E+02   -.188E+03 -.249E+03 -.780E+02   0.130E+02 0.157E+02 0.623E+01   -.159E-02 0.304E-02 0.152E-01
   0.111E+03 -.267E+03 0.595E+02   -.124E+03 0.287E+03 -.586E+02   0.115E+02 -.176E+02 -.849E+00   -.565E-03 -.904E-03 0.158E-01
   -.259E+03 -.472E+02 -.259E+02   0.280E+03 0.562E+02 0.338E+02   -.189E+02 -.796E+01 -.695E+01   0.977E-03 -.106E-02 0.155E-01
   0.161E+01 -.119E+03 -.209E+03   -.179E+01 0.126E+03 0.228E+03   0.163E+00 -.606E+01 -.173E+02   0.204E-03 0.646E-02 -.914E-02
   0.410E+02 -.597E+02 0.645E+02   -.516E+02 0.615E+02 -.791E+02   0.943E+01 -.153E+01 0.131E+02   -.982E-04 -.564E-02 -.132E-01
   0.663E+02 0.587E+02 -.164E+03   -.690E+02 -.616E+02 0.172E+03   0.239E+01 0.251E+01 -.712E+01   -.285E-02 -.385E-02 -.110E-01
   -.465E+02 -.362E+02 0.175E+03   0.478E+02 0.355E+02 -.191E+03   -.112E+01 0.545E+00 0.138E+02   0.235E-02 0.297E-02 -.133E-01
   -.673E+02 0.469E+02 -.193E+03   0.701E+02 -.489E+02 0.207E+03   -.245E+01 0.181E+01 -.119E+02   0.300E-02 -.379E-02 -.999E-02
   0.690E+02 -.554E+02 0.199E+03   -.769E+02 0.589E+02 -.218E+03   0.704E+01 -.307E+01 0.172E+02   -.249E-02 0.334E-02 -.128E-01
   0.696E+01 -.136E+03 -.789E+02   -.671E+01 0.137E+03 0.986E+02   -.225E+00 -.130E+01 -.174E+02   -.351E-03 0.574E-03 0.179E-01
   -.965E+01 0.718E+02 0.763E+02   0.207E+02 -.770E+02 -.909E+02   -.987E+01 0.468E+01 0.132E+02   -.509E-04 -.124E-02 -.697E-02
   0.173E+03 0.118E+03 -.159E+03   -.180E+03 -.126E+03 0.181E+03   0.583E+01 0.633E+01 -.198E+02   -.898E-03 0.321E-02 0.170E-01
   -.110E+03 -.568E+02 0.211E+03   0.116E+03 0.584E+02 -.231E+03   -.540E+01 -.144E+01 0.178E+02   0.232E-02 0.255E-02 -.457E-02
   -.166E+03 0.109E+03 -.915E+02   0.172E+03 -.116E+03 0.102E+03   -.555E+01 0.570E+01 -.926E+01   0.897E-03 0.257E-02 0.168E-01
   0.113E+03 -.692E+02 0.192E+03   -.119E+03 0.734E+02 -.208E+03   0.465E+01 -.377E+01 0.148E+02   -.253E-02 0.229E-02 -.417E-02
   0.123E+02 -.513E+02 -.192E+03   -.145E+02 0.519E+02 0.213E+03   0.191E+01 -.543E+00 -.187E+02   -.208E-04 -.109E-02 -.440E-02
   -.399E+01 0.211E+03 0.153E+03   0.333E+01 -.215E+03 -.164E+03   0.590E+00 0.362E+01 0.948E+01   0.338E-03 0.118E-02 0.123E-01
   -.924E+01 0.196E+02 -.261E+03   0.142E+02 -.166E+02 0.282E+03   -.437E+01 -.264E+01 -.181E+02   -.972E-03 -.128E-02 -.352E-02
   -.190E+03 -.134E+03 0.225E+03   0.199E+03 0.142E+03 -.247E+03   -.794E+01 -.752E+01 0.194E+02   0.656E-03 -.355E-02 0.131E-01
   -.624E+02 0.654E+02 -.258E+03   0.679E+02 -.684E+02 0.280E+03   -.490E+01 0.269E+01 -.195E+02   0.204E-02 -.130E-02 -.408E-02
   0.157E+03 -.186E+03 0.145E+03   -.154E+03 0.200E+03 -.155E+03   -.258E+01 -.125E+02 0.878E+01   -.474E-03 -.330E-02 0.125E-01
   0.864E+02 -.199E+03 -.219E+02   -.950E+02 0.216E+03 0.224E+02   0.762E+01 -.145E+02 -.435E+00   -.135E-02 0.558E-02 -.164E-01
   -.111E+03 0.190E+03 -.442E+02   0.118E+03 -.210E+03 0.456E+02   -.553E+01 0.176E+02 -.122E+01   0.176E-02 -.513E-02 -.165E-01
   0.108E+03 0.207E+03 0.200E+02   -.113E+03 -.229E+03 -.303E+02   0.432E+01 0.197E+02 0.918E+01   -.128E-02 -.532E-02 -.168E-01
   -.865E+02 -.212E+03 -.148E+02   0.941E+02 0.231E+03 0.147E+02   -.676E+01 -.172E+02 0.177E+00   0.152E-02 0.560E-02 -.162E-01
   -.193E+03 0.235E+01 -.126E+02   0.216E+03 -.647E-01 0.142E+02   -.204E+02 -.202E+01 -.138E+01   0.254E-02 -.535E-03 -.161E-01
   0.102E+03 -.217E+03 0.368E+02   -.110E+03 0.233E+03 -.377E+02   0.708E+01 -.148E+02 0.782E+00   -.211E-02 -.328E-03 0.101E-01
[...]
   -.151E+02 0.216E+02 -.766E+02   0.175E+02 -.210E+02 0.775E+02   -.217E+01 -.613E+00 -.694E+00   0.928E-03 -.250E-02 -.147E-02
   0.698E+02 -.694E+02 0.430E+02   -.690E+02 0.740E+02 -.436E+02   -.792E+00 -.439E+01 0.584E+00   -.416E-03 -.145E-02 0.824E-02
   -.630E+02 -.558E+02 0.592E+02   0.641E+02 0.574E+02 -.586E+02   -.968E+00 -.152E+01 -.618E+00   0.346E-03 -.148E-02 0.834E-02
   0.105E+02 0.109E+02 -.659E+02   -.103E+02 -.105E+02 0.662E+02   -.174E+00 -.427E+00 -.246E+00   -.656E-03 -.245E-02 -.133E-02
   -.146E+02 0.113E+03 0.386E+02   0.135E+02 -.114E+03 -.381E+02   0.111E+01 0.789E+00 -.501E+00   0.465E-03 0.793E-03 0.831E-02
   -.116E+01 -.450E+02 -.408E+02   0.805E+00 0.456E+02 0.405E+02   0.344E+00 -.502E+00 0.258E+00   -.198E-03 -.108E-02 -.155E-02
   -.463E+02 0.503E+02 -.566E+02   0.458E+02 -.499E+02 0.575E+02   0.558E+00 -.381E+00 -.791E+00   0.120E-02 0.109E-02 -.110E-02
   0.144E+02 0.101E+02 -.551E+01   -.144E+02 -.101E+02 0.705E+01   0.959E-01 -.676E-01 -.155E+01   -.612E-04 -.261E-02 -.722E-02
   -.189E+02 0.425E+02 -.102E+02   0.201E+02 -.423E+02 0.105E+02   -.116E+01 -.249E+00 -.388E+00   -.359E-03 -.520E-03 -.418E-03
   0.765E+02 -.489E+02 0.234E+02   -.769E+02 0.497E+02 -.240E+02   0.427E+00 -.737E+00 0.467E+00   -.161E-03 -.128E-02 0.623E-02
   0.218E+03 0.774E+02 0.190E+03   -.217E+03 -.764E+02 -.186E+03   -.148E+01 -.963E+00 -.448E+01   -.194E-02 -.132E-02 -.284E-01
   -.805E+00 0.152E+02 0.554E+03   0.431E+00 -.119E+02 -.551E+03   0.341E+00 -.306E+01 -.250E+01   0.759E-03 -.563E-02 0.185E-01
   -.168E+01 0.732E+02 0.574E+02   0.500E+00 -.706E+02 -.540E+02   0.110E+01 -.230E+01 -.312E+01   -.417E-04 -.958E-02 -.243E-02
   0.203E+01 0.654E+02 -.108E+03   -.251E+01 -.659E+02 0.107E+03   0.396E+00 0.285E+00 0.881E-01   -.326E-03 0.102E-02 0.847E-02
   -.100E+01 0.434E+01 0.323E+02   -.164E-12 0.000E+00 0.853E-13   0.134E+01 -.327E+01 -.279E+02   0.257E-02 -.761E-02 0.809E-02

 POSITION                                       TOTAL-FORCE (eV/Angst)
     11.59871      1.14657      1.75351        -0.231331      0.167179     -0.212313
     -4.59917     10.52037     13.04369         0.178620     -0.060375      0.179851
      6.77014      9.40762      1.88425         0.044989     -0.264102     -0.260524
     -0.06308      2.30892     12.79133         0.014116      0.263058      0.253909
      1.94524      1.22566      1.71406         0.237520      0.125775     -0.173296
      4.74043     10.69361     13.01815        -0.349475      0.138981      0.094559
      4.63436      5.05167      6.73133        -0.164144      0.137704     -0.241210
      8.81762      2.76920      3.23075         0.340882      0.150740      0.094374
      6.76404      1.65629      6.94502         0.001752     -0.306203     -0.346940
      6.77559      6.37050      3.00579         0.000187      0.222311      0.256872
      8.88124      5.02497      6.84008         0.183848      0.146141     -0.285268
      4.71861      2.79602      2.70853        -0.232082     -0.099745      0.342655
     -2.17569      9.17924     11.47994        -0.127986      0.028892     -0.102265
      1.89679      6.73387      7.73257         0.238004     -0.131946      0.302367
      0.07201      5.35148     11.42657        -0.004657     -0.180502     -0.113344
      0.02532     10.08110      7.83373         0.300351      0.221505      0.244364
      2.09274      8.95397     11.87640         0.153124      0.123570     -0.352828
     -2.16495      6.61621      7.87833        -0.168752     -0.130325      0.294560
     11.18136      3.73274      2.38054        -0.157871     -0.329381      0.015809
     -4.33403      7.92592     12.40693         0.158095      0.369166     -0.096363
      4.65234      7.97368      2.56300         0.438278     -0.118523     -0.088553
      2.08331      3.74628     12.08750        -0.386843      0.081014      0.061400
      4.22131      0.17655      2.64609        -0.096435      0.369725     -0.218908
      2.33838     11.60967     12.21109         0.172522     -0.356773      0.058735
     -2.29606     11.68949     12.37920        -0.230570     -0.324976     -0.017926
      9.21075      0.04352      2.39350         0.310632      0.237502     -0.243114
      4.58443      7.96743     11.98015        -0.436560      0.127164     -0.052193
      2.30846      3.82841      2.32417         0.200962     -0.366943     -0.005134
     -2.07552      3.98681     12.29326         0.393913     -0.025648     -0.048596
      8.89296      7.95009      2.57765        -0.426303     -0.065613     -0.070283
      4.44373      7.59063      7.43359        -0.250543     -0.299662     -0.076433
     -2.13501     11.76241      7.01426         0.357964      0.311804      0.016093
     11.27254      3.98738      7.35684        -0.199678      0.401110      0.004518
      2.18984      4.12976      7.11798         0.256128      0.323188      0.112075
      9.06493      7.61019      7.44219         0.222876     -0.350414     -0.026563
      8.82518      0.07949      7.59724        -0.372899     -0.141959     -0.143214
     -0.07689      2.87447      1.91310         0.008434     -0.122662     -0.343814
      6.98492      8.95788     12.63742         0.293296      0.018444      0.353107
      4.37828     10.39481      1.62729         0.055206      0.034839     -0.152988
      2.37483      1.28142     12.85106        -0.023080      0.003497      0.283411
     -4.51214     10.45244      1.86092        -0.045258      0.046482     -0.245046
     11.10976      1.45088     12.68940         0.145608     -0.051999      0.342498
      6.76005      6.55201      6.94539        -0.005957     -0.036156     -0.346571
      6.70970      1.02520      2.57804        -0.276995      0.146524      0.370298
      4.23487      2.48371      6.90212         0.117472      0.132399     -0.394255
      9.22718      5.37160      2.88789        -0.112611     -0.033238      0.356280
      9.28461      2.43950      6.68471        -0.106707      0.124717     -0.204567
      4.32670      5.40049      2.89544         0.099923     -0.070968      0.294571
     -0.00901     10.56332     11.90425         0.022295     -0.019435     -0.372425
     -0.08444      5.06688      7.97166         0.010545      0.103861      0.192058
     -2.18371      6.56993     11.82744        -0.069523     -0.036412     -0.362763
      2.51089      9.31937      7.67540        -0.175190     -0.169917      0.385784
      2.49465      6.33130     11.82161        -0.110119      0.044501     -0.395521
     -2.55360      9.17914      8.01095        -0.061282     -0.335544      0.188988
     11.85914      3.05069     14.69482         0.158593     -0.292731     -0.005455
      8.54637      8.60315      0.04840        -0.110741      0.353397      0.006593
      5.12982      8.42862     14.76002         0.102590      0.398837      0.273841
      1.65867      3.13949     14.64017        -0.141337     -0.351181      0.005570
      3.68081      0.05311      0.06766        -0.413464     -0.035083     -0.014013
      5.03586      6.97688      4.93248         0.145001     -0.302723      0.016559
[...]
      1.53717     10.51648      8.23858        -0.065751      0.043027     -0.034485
      3.10307      7.77417     11.37471         0.125460      0.004312      0.095992
     -3.26353      7.80143      8.31910        -0.001278      0.066562     -0.046659
      3.03302      7.87271      8.16006         0.048410      0.032595     -0.007422
     -3.07308      7.84919     11.39196        -0.029419     -0.041477      0.064982
     -1.67642      5.09086      8.27029        -0.019188     -0.025332     -0.020741
      1.53529     10.43077     11.43919         0.001427      0.039333      0.013428
      1.65686      5.06597     11.25626         0.042550      0.001360      0.041644
      5.30210      9.06569     13.16729         0.052758     -0.039639     -0.054136
      8.29451      1.12754      3.40238        -0.038516     -0.063037     -0.034671
     -1.63598     10.64072      8.20959         0.013158      0.004561     -0.039228
      7.49196      0.28801      0.53104        -0.008628     -0.015654      0.001582
     -0.25349      7.94599      7.08477        -0.001702      0.011736     -0.033436
      6.68878      7.34126     11.00475        -0.017552      0.063260      0.013322
      6.91481      4.40322      9.64442        -0.075220     -0.255892     -0.056234
    total drift:                                0.000161     -0.006037      0.010421

  FREE ENERGIE OF THE ION-ELECTRON SYSTEM (eV)
  free  energy   TOTEN  =     -1204.45572539 eV

  energy  without entropy=    -1204.45572539  energy(sigma->0) =    -1204.45572539

 stress matrix after NEB project (eV)
      0.00000      0.00000      0.00000
      0.00000      0.00000      0.00000
      0.00000      0.00000      0.00000
  FORCES: max atom, RMS     1.532513    0.361964
  FORCE total and by dimension    3.864715    1.321105
  Stress total and by dimension    0.000000    0.000000

 total charge

[...]

 magnetization (x)

# of ion       s       p       d       tot
    1        0.000   0.000   0.000   0.000
    2       -0.000  -0.000   0.000  -0.000
    3        0.000   0.000   0.000   0.000
    4       -0.000  -0.000   0.000  -0.000
    5        0.000   0.000   0.000   0.000
    6        0.000  -0.000   0.000  -0.000
    7        0.000  -0.000   0.000  -0.000
    8        0.000   0.000   0.000   0.000
    9        0.000   0.000   0.000   0.000
   10        0.000   0.000   0.000   0.000
   11       -0.000  -0.000   0.000  -0.000
   12        0.000   0.000   0.000   0.000
   13       -0.000  -0.000   0.000  -0.000
   14       -0.000  -0.000   0.000  -0.000
   15       -0.000  -0.000   0.000  -0.000
   16       -0.000  -0.000   0.000  -0.000
   17        0.000  -0.000   0.000  -0.000
   18       -0.000  -0.000   0.000  -0.000
   19        0.000   0.000   0.000   0.000
   20       -0.000  -0.000   0.000  -0.000
   21        0.000   0.000   0.000   0.000
   22       -0.000  -0.000   0.000  -0.000
   23        0.000   0.000   0.000   0.000
   24       -0.000  -0.000   0.000  -0.000
   25       -0.000  -0.000   0.000  -0.000
   26        0.000   0.000   0.000   0.000
   27       -0.000  -0.000   0.000  -0.000
   28        0.000   0.000   0.000   0.000
   29        0.000  -0.000   0.000  -0.000
   30        0.000   0.000   0.000   0.000
   31       -0.000  -0.000   0.000  -0.000
   32       -0.000  -0.000   0.000  -0.000
   33       -0.000  -0.000   0.000  -0.000
   34       -0.000  -0.000   0.000  -0.000
   35       -0.000  -0.000   0.000  -0.000
   36       -0.000  -0.000   0.000  -0.000
   37        0.000   0.000   0.000   0.000
   38       -0.000  -0.000   0.000  -0.000
   39        0.000   0.000   0.000   0.000
   40       -0.000  -0.000   0.000  -0.000
   41        0.000   0.000   0.000   0.000
   42       -0.000  -0.000   0.000  -0.000
   43        0.000  -0.000   0.000  -0.000
   44        0.000   0.000   0.000   0.000
   45       -0.000  -0.000   0.000  -0.000
   46        0.000   0.000   0.000   0.000
   47        0.000  -0.000   0.000  -0.000
   48        0.000   0.000   0.000   0.000
   49       -0.000  -0.000   0.000  -0.000
   50       -0.000  -0.000   0.000  -0.000
   51        0.000  -0.000   0.000  -0.000
   52        0.000  -0.000   0.000  -0.000
   53       -0.000  -0.000   0.000  -0.000
   54       -0.000  -0.000   0.000  -0.000
   55        0.000   0.000   0.000   0.000
   56        0.000   0.000   0.000   0.000
   57        0.000   0.000   0.000   0.000
   58        0.000   0.000   0.000   0.000
   59       -0.000   0.000   0.000   0.000
   60        0.000   0.000   0.000   0.000
[...]
  100        0.000   0.000   0.000   0.000
  101        0.000   0.000   0.000   0.000
  102        0.000   0.000   0.000   0.000
  103        0.000   0.000   0.000   0.000
  104        0.000   0.000   0.000   0.000
  105        0.000   0.000   0.000   0.000
  106        0.000   0.000   0.000   0.000
  107        0.000   0.000   0.000   0.000
  108        0.000   0.000   0.000   0.000
  109       -0.000  -0.000   0.000  -0.000
  110        0.000   0.000   0.000   0.000
  111       -0.000  -0.000   0.000   0.000
  112       -0.000   0.000   0.000   0.000
  113        0.000  -0.000  -0.000  -0.000
  114        0.000   0.000   0.000   0.000
tot          0.000   0.000   0.000   0.000