 vasp.5.4.4.18Apr17-6-g9f103f2a35 (build Dec 31 2018 11:41:54) complex

 executed on             LinuxIFC date 2022.06.28  11:07:53

 INCAR:
 POTCAR:   PAW_PBE O 08Apr2002
 POTCAR:   PAW_PBE Si 05Jan2001
 POTCAR:   PAW_PBE Al 04Jan2001
 POTCAR:   PAW_PBE Ag 06Sep2000
 POTCAR:   PAW_PBE O 08Apr2002
   VRHFIN =O: s2p4

   TITEL  = PAW_PBE O 08Apr2002
   POMASS =   16.000; ZVAL   =    6.000    mass and valenz
   ENMAX  =  400.000; ENMIN  =  300.000 eV
   QCUT   =   -5.520; QGAM   =   11.041    optimization parameters

   Description
     l     E      TYP  RCUT    TYP  RCUT
     0   .000     23  1.200
     0  -.700     23  1.200
     1   .000     23  1.520
     1   .600     23  1.520
     2   .000      7  1.500

 POTCAR:   PAW_PBE Si 05Jan2001
   VRHFIN =Si: s2p2

   TITEL  = PAW_PBE Si 05Jan2001
   POMASS =   28.085; ZVAL   =    4.000    mass and valenz
   ENMAX  =  245.345; ENMIN  =  184.009 eV
   QCUT   =   -4.246; QGAM   =    8.493    optimization parameters

[...]

 POTCAR:   PAW_PBE Al 04Jan2001
   VRHFIN =Al: s2p1

   TITEL  = PAW_PBE Al 04Jan2001
   POMASS =   26.982; ZVAL   =    3.000    mass and valenz
   ENMAX  =  240.300; ENMIN  =  180.225 eV
   QCUT   =   -4.203; QGAM   =    8.405    optimization parameters

[...]

 POTCAR:   PAW_PBE Ag 06Sep2000
   VRHFIN =Ag : s1 d10

   TITEL  = PAW_PBE Ag 06Sep2000
   POMASS =  107.868; ZVAL   =   11.000    mass and valenz
   ENMAX  =  249.846; ENMIN  =  187.385 eV
   QCUT   =   -4.285; QGAM   =    8.570    optimization parameters

   Description
     l     E      TYP  RCUT    TYP  RCUT
     2   .000     23  2.400
     2   .000     23  2.400
     0   .000     23  2.400
     0   .000     23  2.400
     1  -.200     23  2.400
     1  1.500     23  2.400
     3   .000      7   .000

 Optimization of the real space projectors (new method)

 maximal supplied QI-value         = 24.76
 optimisation between [QCUT,QGAM] = [ 10.15, 20.30] = [ 28.85,115.39] Ry
 Optimized for a Real-space Cutoff    1.51 Angstroem

   l    n(q)    QCUT    max X(q) W(low)/X(q) W(high)/X(q)  e(spline)
   0      9    10.150     4.192    0.32E-04    0.13E-04    0.13E-06
   0      9    10.150     8.473    0.18E-03    0.20E-03    0.43E-06
   1      9    10.150     2.474    0.32E-04    0.33E-04    0.64E-07
   1      9    10.150     3.912    0.13E-03    0.16E-03    0.33E-06
 Optimization of the real space projectors (new method)

[...]

   l    n(q)    QCUT    max X(q) W(low)/X(q) W(high)/X(q)  e(spline)
   0      8    10.119    13.410    0.28E-04    0.17E-04    0.51E-08
   0      8    10.119   140.052    0.10E-03    0.16E-03    0.42E-07
   1      7    10.119     9.624    0.38E-04    0.42E-05    0.15E-07
   1      7    10.119    53.353    0.23E-03    0.17E-03    0.13E-06
 Optimization of the real space projectors (new method)

 maximal supplied QI-value         = 15.68
 optimisation between [QCUT,QGAM] = [ 10.20, 20.39] = [ 29.11,116.42] Ry
 Optimized for a Real-space Cutoff    1.51 Angstroem

   l    n(q)    QCUT    max X(q) W(low)/X(q) W(high)/X(q)  e(spline)
   2      8    10.195     3.831    0.11E-04    0.20E-04    0.48E-07
   2      8    10.195    20.184    0.23E-03    0.42E-03    0.20E-06
   0      9    10.195    16.770    0.13E-04    0.90E-05    0.63E-08
   0      9    10.195    80.708    0.19E-03    0.15E-03    0.44E-07
   1      9    10.195     6.696    0.12E-04    0.45E-04    0.30E-07
   1      9    10.195     8.973    0.12E-03    0.15E-03    0.13E-06
 PAW_PBE O 08Apr2002                    :
 PAW_PBE Si 05Jan2001                   :
 PAW_PBE Al 04Jan2001                   :
 PAW_PBE Ag 06Sep2000                   :

 POSCAR: O  C
  positions in direct lattice
  velocities in cartesian coordinates
 exchange correlation table for  LEXCH =        8
   RHO(1)=    0.500       N(1)  =     2000
   RHO(2)=  100.500       N(2)  =     4000

 VTST: version 3.2, (02/03/18)

 CHAIN: initializing optimizer

 OPT: Using VASP Quick-Min optimizer
 CHAIN: Read ICHAIN            1

 POSCAR: O  C
  positions in direct lattice
  velocities in cartesian coordinates
 CHAIN: Running the Dynamical Matrix

 ion  position               nearest neighbor table
   1  0.896  0.100  0.119-  75 1.63  82 1.63
   2  0.104  0.889  0.877-  76 1.62  81 1.63
   3  0.892  0.790  0.125-  85 1.61  77 1.63
   4  0.092  0.195  0.867-  78 1.63  84 1.63
   5  0.194  0.102  0.115-  79 1.63  83 1.63
   6  0.800  0.906  0.881-  80 1.59 108 1.72
   7  0.558  0.424  0.460-  86 1.62  92 1.63
   8  0.763  0.228  0.217-  91 1.59 109 1.73
   9  0.565  0.141  0.471-  96 1.64  87 1.64
  10  0.766  0.543  0.215-  95 1.63  88 1.63
  11  0.861  0.425  0.463-  94 1.63  89 1.64
  12  0.465  0.235  0.183-  90 1.63  93 1.64
  13  0.227  0.774  0.779- 104 1.61  97 1.64
  14  0.425  0.570  0.527-  98 1.66 103 1.67 112 2.55
  15  0.229  0.451  0.773- 107 1.62  99 1.62
  16  0.430  0.851  0.531- 100 1.62 110 1.79 112 2.28
  17  0.530  0.756  0.805- 101 1.63 106 1.64
  18  0.123  0.558  0.531- 105 1.65 102 1.68 112 2.46
  19  0.978  0.319  0.162-  75 1.61  91 1.63
  20  0.015  0.668  0.837- 104 1.63  76 1.63
  21  0.678  0.675  0.175-  95 1.61  77 1.63
  22  0.309  0.316  0.819- 107 1.62  78 1.63
  23  0.318  0.015  0.177-  79 1.61  93 1.63
  24  0.660  0.980  0.829- 106 1.62  80 1.63
  25  0.323  0.987  0.837-  81 1.61  97 1.63
  26  0.673  0.998  0.164-  82 1.60 109 1.74 111 2.56
  27  0.666  0.670  0.819- 101 1.61 108 1.77 113 2.32
  28  0.330  0.321  0.159-  83 1.62  90 1.62
  29  0.015  0.336  0.831-  99 1.61  84 1.62
  30  0.985  0.666  0.170-  85 1.62  88 1.62
  31  0.647  0.639  0.506- 103 1.61  86 1.62
  32  0.342  0.993  0.475-  87 1.59 110 1.71
  33  0.993  0.337  0.496- 105 1.61  89 1.63
  34  0.340  0.353  0.480-  98 1.61  92 1.63
  35  0.986  0.643  0.503- 102 1.62  94 1.62
  36  0.650  0.008  0.516- 100 1.61  96 1.64
  37  0.116  0.242  0.130-  83 1.61  75 1.62
  38  0.883  0.749  0.862-  76 1.62 108 1.77 113 2.32
  39  0.767  0.881  0.112-  82 1.60  77 1.61
  40  0.227  0.108  0.871-  78 1.61  81 1.61
  41  0.111  0.881  0.131-  79 1.61  85 1.61
  42  0.872  0.124  0.862-  84 1.61  80 1.62
  43  0.777  0.563  0.452-  86 1.61  94 1.61
  44  0.534  0.084  0.175-  93 1.62 109 1.79 111 2.30
  45  0.413  0.208  0.466-  92 1.60  87 1.64
  46  0.891  0.447  0.192-  88 1.61  91 1.63
  47  0.782  0.206  0.452-  89 1.60  96 1.63
  48  0.547  0.455  0.189-  90 1.62  95 1.62
  49  0.444  0.892  0.807- 106 1.62  97 1.64
  50  0.209  0.427  0.539-  98 1.62 105 1.62
  51  0.116  0.554  0.801-  99 1.61 104 1.62
  52  0.581  0.788  0.523- 103 1.61 100 1.64
  53  0.447  0.534  0.800- 107 1.62 101 1.63
  54  0.203  0.774  0.540- 102 1.58 110 1.73 112 2.76
  55  0.998  0.261  0.996-  84 1.62  75 1.63
  56  0.997  0.730  0.002-  76 1.62  85 1.63
  57  0.727  0.712  0.001-  77 1.60 108 1.72
  58  0.254  0.266  0.992-  78 1.63  83 1.63
  59  0.264  0.997  0.003-  81 1.63  79 1.64
  60  0.642  0.584  0.334-  86 1.62  95 1.63
  61  0.628  0.047  0.343-  96 1.60 109 1.72
  62  0.440  0.107  0.325-  93 1.61  87 1.63
  63  0.931  0.583  0.333-  94 1.62  88 1.63
  64  0.935  0.348  0.329-  89 1.62  91 1.64
  65  0.412  0.327  0.322-  92 1.62  90 1.63
  66  0.353  0.946  0.666-  97 1.59 110 1.74
  67  0.349  0.407  0.655-  98 1.63 107 1.64
  68  0.058  0.406  0.664- 105 1.62  99 1.63
  69  0.575  0.898  0.668- 106 1.61 100 1.62
  70  0.569  0.659  0.663- 103 1.61 101 1.62
  71  0.055  0.642  0.668- 104 1.63 102 1.63
  72  0.729  0.011  0.996-  80 1.66  82 1.67 111 2.47
  73  0.762  0.472  0.693-  74 1.25 113 2.18
  74  0.799  0.544  0.631-  73 1.25 113 2.75
  75  0.996  0.230  0.102-  19 1.61  37 1.62   1 1.63  55 1.63  91 3.08  83 3.10  84 3.13  82 3.14

  76  0.001  0.762  0.896-  38 1.62  56 1.62   2 1.62  20 1.63 104 3.05  85 3.11 108 3.22 113 3.28

[...]

 103  0.557  0.665  0.555-  70 1.61  31 1.61  52 1.61  14 1.67 100 3.04  86 3.07  98 3.11
 104  0.106  0.662  0.770-  13 1.61  51 1.62  20 1.63  71 1.63  76 3.05  99 3.08 102 3.09
 105  0.093  0.430  0.558-  33 1.61  68 1.62  50 1.62  18 1.65  89 3.03  99 3.09 102 3.14
 106  0.552  0.881  0.776-  69 1.61  49 1.62  24 1.62  17 1.64  80 3.07  97 3.09 101 3.09
 107  0.333  0.426  0.762-  22 1.62  15 1.62  53 1.62  67 1.64  78 3.07 101 3.08  98 3.11
 108  0.769  0.768  0.894-   6 1.72  57 1.72  38 1.77  27 1.77 113 2.96  77 3.05 101 3.13  80 3.21
                            76 3.22
 109  0.653  0.091  0.232-  61 1.72   8 1.73  26 1.74  44 1.79  93 3.07 111 3.10  96 3.11  82 3.13
                            91 3.25
 110  0.331  0.898  0.555-  32 1.71  54 1.73  66 1.74  16 1.79  87 3.07  97 3.14 100 3.18 112 3.22

 111  0.559  0.021  0.037-  44 2.30  72 2.47  26 2.56 109 3.10  82 3.17
 112  0.319  0.671  0.479-  16 2.28  18 2.46  14 2.55  54 2.76 110 3.22 102 3.25 100 3.35
 113  0.760  0.568  0.810-  73 2.18  38 2.32  27 2.32  74 2.75 108 2.96  76 3.28

  LATTYP: Found a hexagonal cell.
 ALAT       =    13.6750001907
 C/A-ratio  =     1.0798537472

  Lattice vectors:

 A1 = (  13.6750001907,   0.0000000000,   0.0000000000)
 A2 = (  -6.8375000954,  11.8428975619,   0.0000000000)
 A3 = (   0.0000000000,   0.0000000000,  14.7670001984)

Analysis of symmetry for initial positions (statically):
 Subroutine PRICEL returns:
 Original cell was already a primitive cell.

 Routine SETGRP: Setting up the symmetry group for a
 hexagonal supercell.

 Subroutine GETGRP returns: Found  1 space group operations
 (whereof  1 operations were pure point group operations)
 out of a pool of 24 trial point group operations.

The static configuration has the point symmetry C_1 .

Analysis of symmetry for dynamics (positions and initial velocities):
 Subroutine PRICEL returns:
 Original cell was already a primitive cell.

[...]

The dynamic configuration has the point symmetry C_1 .

Analysis of structural, dynamic, and magnetic symmetry:
 Subroutine PRICEL returns:
 Original cell was already a primitive cell.

 Routine SETGRP: Setting up the symmetry group for a
 hexagonal supercell.

 Subroutine GETGRP returns: Found  1 space group operations
 (whereof  1 operations were pure point group operations)
 out of a pool of 24 trial point group operations.

The magnetic configuration has the point symmetry C_1 .

 Subroutine INISYM returns: Found  1 space group operations
 (whereof  1 operations are pure point group operations),
 and found     1 'primitive' translations

 KPOINTS: Gamma points only
  k-points in reciprocal lattice
Space group operators:
 irot       det(A)        alpha          n_x          n_y          n_z        tau_x        tau_y        tau_z
    1     1.000000     0.000000     1.000000     0.000000     0.000000     0.000000     0.000000     0.000000

 SYSTEM =  zeolite
 POSCAR =  O  C

 Startparameter for this run:
   NWRITE =      2    write-flag & timer
   PREC   = acc       normal or accurate (medium, high low for compatibility)
   ISTART =      0    job   : 0-new  1-cont  2-samecut
   ICHARG =      2    charge: 1-file 2-atom 10-const
   ISPIN  =      2    spin polarized calculation?
   LNONCOLLINEAR =      F non collinear calculations
   LSORBIT =      F    spin-orbit coupling
   INIWAV =      1    electr: 0-lowe 1-rand  2-diag
   LASPH  =      F    aspherical Exc in radial PAW
[...]
 DYNMAT: After DIRKAR
      -1.632915580026953      11.199408002205706       9.840451285671001
 DYNMAT: Loop at J=          67
 DYNMAT: Before DIRKAR
 DYNMAT: After DIRKAR
       1.990787923524021       4.825177101092848       9.665089983971891
 DYNMAT: Loop at J=          68
 DYNMAT: Before DIRKAR
 DYNMAT: After DIRKAR
      -1.987609129985994       4.805887145378413       9.802370103703053
 DYNMAT: Loop at J=          69
 DYNMAT: Before DIRKAR
 DYNMAT: After DIRKAR
       1.725885148020107      10.632110858653187       9.868740996345165
 DYNMAT: Loop at J=          70
 DYNMAT: Before DIRKAR
 DYNMAT: After DIRKAR
       3.277862793177912       7.808874444956515       9.794554209012105
 DYNMAT: Loop at J=          71
 DYNMAT: Before DIRKAR
 DYNMAT: After DIRKAR
      -3.633224255110724       7.597864438593012       9.859670824144027
 DYNMAT: Loop at J=          72
 DYNMAT: Before DIRKAR
 DYNMAT: After DIRKAR
       9.892512923387292       0.127973450929676      14.705376790562164
 DYNMAT: Loop at J=          73
 DYNMAT: Before DIRKAR
 DYNMAT: After DIRKAR
       7.192608228206033       5.588913193872760      10.230482615430887
 DYNMAT: Loop at J=          74
 DYNMAT: Before DIRKAR
 DYNMAT: After DIRKAR
       7.199382221643972       6.448126656941247       9.317963132904014
 DYNMAT: Loop at J=          75
 DYNMAT: Before DIRKAR
 DYNMAT: After DIRKAR
      12.043780409814559       2.719889814484324       1.509640802872990
 DYNMAT: Loop at J=          76
 DYNMAT: Before DIRKAR
 DYNMAT: After DIRKAR
      -5.197672542161969       9.022743068634705      13.227583647657880
 DYNMAT: Loop at J=          77
 DYNMAT: Before DIRKAR
 DYNMAT: After DIRKAR
       5.243330829574163       9.037011655015254       1.487375511293338
 DYNMAT: Loop at J=          78
 DYNMAT: Before DIRKAR
 DYNMAT: After DIRKAR
       1.491512883906900       2.616847758876215      13.121369181829026
 DYNMAT: Loop at J=          79
 DYNMAT: Before DIRKAR
 DYNMAT: After DIRKAR
      -3.812470056549476      11.841531889244564       1.570737658573428
 DYNMAT: Loop at J=          80
 DYNMAT: Before DIRKAR
 DYNMAT: After DIRKAR
      10.477674814307228       0.025486414503988      13.153085169034945
 DYNMAT: Loop at J=          81
 DYNMAT: Before DIRKAR
 DYNMAT: After DIRKAR
      -3.670093258265397      11.781111496134743      13.252454232866640
 DYNMAT: Loop at J=          82
 DYNMAT: Before DIRKAR
 DYNMAT: After DIRKAR
       3.676758459468063      11.817990626819162       1.484655669672376
 DYNMAT: Loop at J=          83
 DYNMAT: Before DIRKAR
 DYNMAT: After DIRKAR
       1.471480202211408       2.747898392451618       1.459672116807898
 DYNMAT: Loop at J=          84
 DYNMAT: Before DIRKAR
 DYNMAT: After DIRKAR
      12.046894269705994       2.692990311915438      13.142484413302736
 DYNMAT: Loop at J=          85
 DYNMAT: Before DIRKAR
 DYNMAT: After DIRKAR
       8.368941988471835       9.081809565416719       1.571199299012646
 DYNMAT: Loop at J=          86
 DYNMAT: Before DIRKAR
 DYNMAT: After DIRKAR
       5.198945879121311       6.538092500995276       6.445520714549214
 DYNMAT: Loop at J=          87
 DYNMAT: Before DIRKAR
 DYNMAT: After DIRKAR
       5.257561818375867       1.289150381382629       6.421196866699765
 DYNMAT: Loop at J=          88
 DYNMAT: Before DIRKAR
 DYNMAT: After DIRKAR
       8.375824126997951       6.620024449617534       3.354147391444791
 DYNMAT: Loop at J=          89
 DYNMAT: Before DIRKAR
 DYNMAT: After DIRKAR
       9.936923273533420       3.879517120123491       6.393275183298984
 DYNMAT: Loop at J=          90
 DYNMAT: Before DIRKAR
 DYNMAT: After DIRKAR
       3.718219686462833       3.957892779282294       3.164224540048882
 DYNMAT: Loop at J=          91
 DYNMAT: Before DIRKAR
 DYNMAT: After DIRKAR
       9.872785499768362       3.927963623193290       3.321591026492280
 DYNMAT: Loop at J=          92
 DYNMAT: Before DIRKAR
 DYNMAT: After DIRKAR
       3.656874996665793       3.871568952966893       6.357488824305179
 DYNMAT: Loop at J=          93
 DYNMAT: Before DIRKAR
 DYNMAT: After DIRKAR
       5.257664461065926       1.309503781595377       3.186830213452056
 DYNMAT: Loop at J=          94
 DYNMAT: Before DIRKAR
 DYNMAT: After DIRKAR
       8.374936074249074       6.539956390840950       6.441811804998734
 DYNMAT: Loop at J=          95
 DYNMAT: Before DIRKAR
 DYNMAT: After DIRKAR
       5.166532945425917       6.683207716749396       3.364450762258413
 DYNMAT: Loop at J=          96
 DYNMAT: Before DIRKAR
 DYNMAT: After DIRKAR
       8.273670590377558       1.178687920043521       6.530041459008663
 DYNMAT: Loop at J=          97
 DYNMAT: Before DIRKAR
 DYNMAT: After DIRKAR
      -1.555694317551257      10.671580263222245      11.339995059152898
 DYNMAT: Loop at J=          98
 DYNMAT: Before DIRKAR
 DYNMAT: After DIRKAR
       1.535141159146009       5.175357603374482       8.144900852416459
 DYNMAT: Loop at J=          99
 DYNMAT: Before DIRKAR
 DYNMAT: After DIRKAR
      -1.551264180768044       5.164874541191521      11.329691600889879
 DYNMAT: Loop at J=         100
 DYNMAT: Before DIRKAR
 DYNMAT: After DIRKAR
       1.562812367217873      10.522050537025505       8.256418390285155
 DYNMAT: Loop at J=         101
 DYNMAT: Before DIRKAR
 DYNMAT: After DIRKAR
       3.076449687544867       7.766035055377409      11.406141022955280
 DYNMAT: Loop at J=         102
 DYNMAT: Before DIRKAR
 DYNMAT: After DIRKAR
      -3.239774017582905       7.798800869471785       8.289149430600444
 DYNMAT: Loop at J=         103
 DYNMAT: Before DIRKAR
 DYNMAT: After DIRKAR
       3.069814792390386       7.877638950590120       8.199279514692947
 DYNMAT: Loop at J=         104
 DYNMAT: Before DIRKAR
 DYNMAT: After DIRKAR
      -3.080489482722606       7.838908952253769      11.373186819914114
 DYNMAT: Loop at J=         105
 DYNMAT: Before DIRKAR
 DYNMAT: After DIRKAR
      -1.663631481202365       5.088588489220621       8.243186418236352
 DYNMAT: Loop at J=         106
 DYNMAT: Before DIRKAR
 DYNMAT: After DIRKAR
       1.519506911282674      10.436147980696674      11.455558889096235
 DYNMAT: Loop at J=         107
 DYNMAT: Before DIRKAR
 DYNMAT: After DIRKAR
       1.638815123188636       5.048108312197627      11.248031574281510
 DYNMAT: Loop at J=         108
 DYNMAT: Before DIRKAR
 DYNMAT: After DIRKAR
       5.261637737465330       9.101054537950832      13.205578630475348
 DYNMAT: Loop at J=         109
 DYNMAT: Before DIRKAR
 DYNMAT: After DIRKAR
       8.311132978444009       1.076810159439558       3.419009667023063
 DYNMAT: Loop at J=         110
 DYNMAT: Before DIRKAR
 DYNMAT: After DIRKAR
      -1.610275253505093      10.630981903458691       8.199678767983972
 DYNMAT: Loop at J=         111
 DYNMAT: Before DIRKAR
 DYNMAT: After DIRKAR
       7.501004381773519       0.249375037422832       0.547641276578387
 DYNMAT: Loop at J=         112
 DYNMAT: Before DIRKAR
 DYNMAT: After DIRKAR
      -0.226092487374305       7.946543437669673       7.072026447418912
 DYNMAT: Loop at J=         113
 DYNMAT: Before DIRKAR
 DYNMAT: After DIRKAR
       6.507998431191764       6.729184129880642      11.958857007869600
 HIPREC TOTAL-FORCE (eV/A)
      -0.004016112318647       0.002489771935574       0.000888379679691
       0.008022897779842       0.010470813377630      -0.002420457339661
       0.005306127527330      -0.002083545044365      -0.000701440229147
       0.000632532599837       0.001336577237930       0.001125273291063
       0.001956627461177      -0.001952414719849       0.000436635592198
      -0.008171971062488       0.014268953858581       0.000694724745709
       0.005817121588415       0.001511551790447       0.005580653839041
       0.001541730120517      -0.001830583417489      -0.000310082099255
      -0.000612100823888       0.003435336297506       0.000873770767650
      -0.001761655053319       0.003883466219061       0.007365244791749
      -0.009203999075611       0.004916432430950       0.006213094027642
       0.002437452328726       0.000260633185748       0.000898416554619
       0.001320223868944       0.003948238644554      -0.002517117302816
      -0.001533668417202       0.002843166002620      -0.003197894327155
      -0.005314324638253       0.003722620076427      -0.000726265984739
      -0.001058574981555       0.001435618984767      -0.000576384093185
      -0.009791909615278       0.014975953125957      -0.002798266842681
      -0.004631166223359       0.003525250018498      -0.000021031066815
       0.001020402140302       0.004447868274901       0.000156919680519
       0.008154365989680       0.001273091022191      -0.006782346708294
      -0.001138104300789       0.003238645036168       0.004705259031669
      -0.001942679286686      -0.003879934632731       0.001838604845819
      -0.000824433005407       0.001678448101821      -0.001263236143023
      -0.002731791498216       0.004615122314049      -0.000209388524793
       0.001897064310831       0.002539401748070       0.001222362064059
       0.001147396294161      -0.000428314406226       0.000683308758503
      -0.021947244281736       0.012155076701834      -0.007873259840238
       0.000677728272945       0.000584076911679       0.000753509022888
       0.000210525736527       0.002962167632424      -0.004197702197438
       0.001592057839835       0.004184065508643      -0.001336749147771
       0.003649656794701       0.000635230256823       0.002753313261752
      -0.000481831086574       0.003571113183124       0.000373296466655
      -0.005070795006690       0.004072617999346       0.000189832666660
      -0.000080127523220       0.004997253180885       0.000371546239992
      -0.011514580408996      -0.004606365941662       0.005538012118254
      -0.001595087747546       0.002620058942001       0.001247340555387
       0.003429730274022       0.003134292238745      -0.000110823941908
       0.024889413246368       0.027120884021827       0.016007342505943
       0.005672344876833       0.005164366342621       0.005512041941782
       0.004876256529326      -0.000522593707164       0.000290927987957
       0.000410848218996       0.005207840340795       0.006183353233734
      -0.002037277062067       0.002419656587746       0.001026441040189
       0.005187106275436       0.004401376557923       0.008602225481937
      -0.001117581823652       0.001006533961460       0.002020813749244
       0.002624899330608      -0.001593667207317       0.000572353229727
      -0.003316116929434      -0.001538906183907       0.002203208727859
      -0.003854964562963       0.001626196750042       0.001919208748254
      -0.000379168400993      -0.002626467086730      -0.001583226181913
      -0.003780948849175      -0.000350399941866      -0.000363543172350
      -0.000327571070808       0.002040864031173      -0.003705643107009
      -0.002891819105209      -0.000109356375056      -0.002642201488397
      -0.001374370240279       0.004808681457099      -0.003416781746622
      -0.006043944796537      -0.009010662621031      -0.004942462765765
      -0.009804917515636      -0.010353959824766       0.002914503249132
       0.000011300825040       0.004332104137341       0.003378413341364
       0.012093091459170       0.005019289446955       0.012438442235091
      -0.010025190975787       0.005660810836780       0.017691821694720
       0.000668249418120       0.002399765546696       0.005340359909811
      -0.001560715783500      -0.000295477467975       0.004916550477187
      -0.006664144630037      -0.001101202596828      -0.003238450486333
[...]
       0.005552581258882       0.000344859342022       0.004180885029736
      -0.000149045031376       0.000287248015665       0.004670494289358
       0.031452835211577       0.006329762524434       0.020855375395364
       0.017266747277545       0.015790887939842      -0.006297057724100
      -0.004740435267163       0.001875730564997       0.011543987378860
      -0.005047329345642       0.005452195632157       0.016402889461179
       0.002338906853238       0.000691764449534      -0.002115681614867
       0.007676424714132      -0.012811910545902       0.007139373566075
       0.005536130979170       0.012226909457943       0.005156923081633
       0.007004592097547      -0.022276248283323      -0.014808789857220
       0.001643128977905      -0.000352121726325      -0.001374727411455
       0.000697361260709       0.003071743013003       0.003191228999042
       0.001230202557731      -0.001717726026689       0.000072419190377
      -0.000870284159915       0.002335015241644      -0.000734294610326
      -0.023210243308346       0.066803568575533       0.065098713531902
DYMAT: ------------------------------
DYMAT: DEGREE OF FREEDOM  73  1  1
DYMAT: ------------------------------
DYMAT: DEGREE OF FREEDOM  73  2  2
DYMAT: ------------------------------
DYMAT: DEGREE OF FREEDOM  73  3  3
DYMAT: ------------------------------
DYMAT: DEGREE OF FREEDOM  74  1  4
DYMAT: ------------------------------
DYMAT: DEGREE OF FREEDOM  74  2  5
DYMAT: ------------------------------
DYMAT: DEGREE OF FREEDOM  74  3  6
DYMAT: LEAVING
 stress matrix after NEB project (eV)
    -24.96846     -0.33569     -0.09361
     -0.33569    -23.11115     -0.47446
     -0.09361     -0.47446    -25.07141
  FORCES: max atom, RMS     0.279975    0.035039
  FORCE total and by dimension    0.372470    0.247299
  Stress total and by dimension   42.270768   25.071408

 total charge

[...]

 magnetization (x)

# of ion       s       p       d       tot
    1       -0.000   0.000   0.000   0.000
    2        0.000   0.000   0.000   0.000
    3        0.000   0.000   0.000   0.000
    4       -0.000   0.000   0.000   0.000
    5       -0.000   0.000   0.000   0.000
    6        0.000   0.000   0.000   0.000
    7       -0.000  -0.000   0.000  -0.000
    8        0.000   0.000   0.000   0.000
    9       -0.000  -0.000   0.000  -0.000
   10       -0.000   0.000   0.000   0.000
   11        0.000   0.001   0.000   0.001
   12        0.000   0.000   0.000   0.000
   13        0.000   0.000   0.000   0.000
   14        0.000   0.000   0.000   0.000
   15       -0.000  -0.000   0.000  -0.000
   16       -0.000   0.000   0.000   0.000
   17        0.000   0.000   0.000   0.001
   18        0.000   0.000   0.000   0.000
   19        0.000   0.000   0.000   0.000
   20        0.000   0.002   0.000   0.002
   21        0.000   0.000   0.000   0.000
   22        0.000   0.000   0.000   0.000
   23        0.000   0.000   0.000   0.000
   24        0.000   0.000   0.000   0.000
   25        0.000   0.000   0.000   0.000
   26       -0.000   0.000   0.000   0.000
   27        0.000   0.006   0.000   0.006
   28       -0.000   0.000   0.000   0.000
   29       -0.000   0.000   0.000   0.000
   30        0.000   0.000   0.000   0.000
   31        0.000   0.001   0.000   0.001
   32        0.000   0.000   0.000   0.000
   33       -0.000   0.000   0.000   0.000
   34       -0.000  -0.000   0.000  -0.000
   35        0.000   0.005   0.000   0.005
   36        0.000   0.000   0.000   0.000
   37       -0.000   0.000   0.000   0.000
   38        0.000   0.002   0.000   0.002
   39       -0.000  -0.000   0.000  -0.000
   40        0.000   0.000   0.000   0.000
   41        0.000   0.000   0.000   0.000
   42        0.000   0.000   0.000   0.000
   43        0.000   0.009   0.000   0.009
   44       -0.000  -0.000   0.000  -0.000
   45        0.000   0.000   0.000   0.000
   46       -0.000   0.000   0.000   0.000
   47        0.000   0.000   0.000   0.000
   48        0.000   0.000   0.000   0.000
   49        0.000   0.000   0.000   0.000
   50       -0.000   0.000   0.000   0.000
   51        0.000   0.000   0.000   0.000
   52        0.000   0.000   0.000   0.000
   53       -0.000  -0.000   0.000  -0.000
   54        0.000   0.000   0.000   0.000
   55        0.000   0.000   0.000   0.000
   56        0.000   0.000   0.000   0.000
   57        0.000   0.000   0.000   0.000
   58       -0.000   0.000   0.000   0.000
   59       -0.000   0.000   0.000   0.000
   60        0.000   0.001   0.000   0.001
[...]
   99        0.000  -0.000   0.000   0.000
  100       -0.000   0.000   0.000   0.000
  101        0.000   0.000   0.000   0.000
  102       -0.000  -0.000   0.000  -0.000
  103       -0.000  -0.000   0.000  -0.000
  104       -0.000   0.000   0.000   0.000
  105        0.000   0.000   0.000   0.000
  106        0.000   0.000   0.000   0.000
  107       -0.000  -0.000   0.000  -0.000
  108        0.000  -0.000   0.000   0.000
  109        0.000  -0.000   0.000   0.000
  110        0.000   0.000   0.000   0.000
  111        0.000   0.000  -0.000  -0.000
  112       -0.000  -0.000   0.000   0.000
  113        0.017   0.006   0.097   0.120
tot          0.038   1.530   0.097   1.665