 vasp.5.4.4.18Apr17-6-g9f103f2a35 (build Dec 31 2018 11:41:54) complex

 executed on             LinuxIFC date 2022.06.27  13:28:52

 INCAR:
 POTCAR:   PAW_PBE O 08Apr2002
 POTCAR:   PAW_PBE Si 05Jan2001
 POTCAR:   PAW_PBE Al 04Jan2001
 POTCAR:   PAW_PBE Ag 06Sep2000
 POTCAR:    PAW_PBE S 17Jan2003
 POTCAR:   PAW_PBE O 08Apr2002
   VRHFIN =O: s2p4

   TITEL  = PAW_PBE O 08Apr2002
   POMASS =   16.000; ZVAL   =    6.000    mass and valenz
   ENMAX  =  400.000; ENMIN  =  300.000 eV
   QCUT   =   -5.520; QGAM   =   11.041    optimization parameters

   Description
     l     E      TYP  RCUT    TYP  RCUT
     0   .000     23  1.200
     0  -.700     23  1.200
     1   .000     23  1.520
     1   .600     23  1.520
     2   .000      7  1.500

 POTCAR:   PAW_PBE Si 05Jan2001
   VRHFIN =Si: s2p2

   TITEL  = PAW_PBE Si 05Jan2001
   POMASS =   28.085; ZVAL   =    4.000    mass and valenz
   ENMAX  =  245.345; ENMIN  =  184.009 eV
   QCUT   =   -4.246; QGAM   =    8.493    optimization parameters

[...]

 POTCAR:   PAW_PBE Al 04Jan2001
   VRHFIN =Al: s2p1

[...]

 POTCAR:   PAW_PBE Ag 06Sep2000
   VRHFIN =Ag : s1 d10

   TITEL  = PAW_PBE Ag 06Sep2000
   POMASS =  107.868; ZVAL   =   11.000    mass and valenz
   ENMAX  =  249.846; ENMIN  =  187.385 eV
   QCUT   =   -4.285; QGAM   =    8.570    optimization parameters

[...]

 POTCAR:    PAW_PBE S 17Jan2003
   VRHFIN =S : s2p4

   TITEL  = PAW_PBE S 17Jan2003
   POMASS =   32.066; ZVAL   =    6.000    mass and valenz
   ENMAX  =  280.000; ENMIN  =  194.016 eV
   QCUT   =   -4.360; QGAM   =    8.721    optimization parameters

   Description
     l     E      TYP  RCUT    TYP  RCUT
     0   .000     23  1.900
     0   .000     23  1.900
     1   .000     23  1.900
     1   .000     23  1.900
     2   .000     23  1.900

 Optimization of the real space projectors (new method)

 maximal supplied QI-value         = 24.76
 optimisation between [QCUT,QGAM] = [ 10.15, 20.30] = [ 28.85,115.39] Ry
 Optimized for a Real-space Cutoff    1.51 Angstroem

   l    n(q)    QCUT    max X(q) W(low)/X(q) W(high)/X(q)  e(spline)
   0      9    10.150     4.192    0.32E-04    0.13E-04    0.13E-06
   0      9    10.150     8.473    0.18E-03    0.20E-03    0.43E-06
   1      9    10.150     2.474    0.32E-04    0.33E-04    0.64E-07
   1      9    10.150     3.912    0.13E-03    0.16E-03    0.33E-06
 Optimization of the real space projectors (new method)

[...]

   l    n(q)    QCUT    max X(q) W(low)/X(q) W(high)/X(q)  e(spline)
   2      8    10.195     3.831    0.11E-04    0.20E-04    0.48E-07
   2      8    10.195    20.184    0.23E-03    0.42E-03    0.20E-06
   0      9    10.195    16.770    0.13E-04    0.90E-05    0.63E-08
   0      9    10.195    80.708    0.19E-03    0.15E-03    0.44E-07
   1      9    10.195     6.696    0.12E-04    0.45E-04    0.30E-07
   1      9    10.195     8.973    0.12E-03    0.15E-03    0.13E-06
 Optimization of the real space projectors (new method)

 maximal supplied QI-value         = 19.84
 optimisation between [QCUT,QGAM] = [ 10.12, 20.44] = [ 28.68,116.96] Ry
 Optimized for a Real-space Cutoff    1.42 Angstroem

   l    n(q)    QCUT    max X(q) W(low)/X(q) W(high)/X(q)  e(spline)
   0      9    10.119     5.487    0.15E-04    0.47E-05    0.66E-08
   0      9    10.119    85.627    0.51E-04    0.92E-04    0.63E-07
   1      8    10.119     3.530    0.37E-05    0.76E-05    0.28E-07
   1      8    10.119    42.714    0.16E-03    0.16E-03    0.23E-06
 PAW_PBE O 08Apr2002                    :
 PAW_PBE Si 05Jan2001                   :
 PAW_PBE Al 04Jan2001                   :
 PAW_PBE Ag 06Sep2000                   :
  PAW_PBE S 17Jan2003                   :

 POSCAR: O  C
  positions in direct lattice
  velocities in cartesian coordinates
 exchange correlation table for  LEXCH =        8
   RHO(1)=    0.500       N(1)  =     2000
   RHO(2)=  100.500       N(2)  =     4000

 VTST: version 3.2, (02/03/18)

 CHAIN: initializing optimizer

 OPT: Using VASP Dynamics algorithm
 CHAIN: Read ICHAIN            0

 POSCAR: O  C
  positions in direct lattice
  velocities in cartesian coordinates

 ion  position               nearest neighbor table
   1  0.899  0.099  0.118-  75 1.63  82 1.63
   2  0.107  0.888  0.882-  81 1.62  76 1.62
   3  0.894  0.795  0.128-  85 1.62  77 1.64
   4  0.096  0.198  0.866-  78 1.63  84 1.63
   5  0.196  0.104  0.116-  79 1.63  83 1.63
   6  0.802  0.905  0.881-  80 1.59 108 1.73
   7  0.555  0.427  0.456-  86 1.62  92 1.63
   8  0.764  0.234  0.220-  91 1.59 109 1.73
   9  0.567  0.142  0.471-  96 1.64  87 1.64
  10  0.767  0.540  0.207-  95 1.63  88 1.63
  11  0.864  0.426  0.464-  94 1.63  89 1.64
  12  0.465  0.237  0.183-  90 1.63  93 1.64
  13  0.232  0.777  0.776- 104 1.61  97 1.64
  14  0.424  0.570  0.525-  98 1.66 103 1.67 112 2.54
  15  0.231  0.449  0.772-  99 1.61 107 1.62
  16  0.429  0.852  0.531- 100 1.63 110 1.79 112 2.27
  17  0.531  0.758  0.806- 101 1.63 106 1.64
  18  0.125  0.561  0.533- 105 1.65 102 1.68 112 2.45
  19  0.978  0.317  0.162-  75 1.61  91 1.63
  20  0.022  0.670  0.841- 104 1.62  76 1.63
  21  0.679  0.674  0.174-  95 1.61  77 1.63
  22  0.314  0.317  0.819- 107 1.62  78 1.63
  23  0.319  0.016  0.178-  79 1.61  93 1.63
  24  0.664  0.981  0.827- 106 1.62  80 1.63
  25  0.326  0.988  0.838-  81 1.61  97 1.63
  26  0.678  0.005  0.163-  82 1.60 109 1.74 111 2.54
  27  0.671  0.674  0.813- 101 1.61 108 1.77 113 2.36
  28  0.333  0.324  0.158-  83 1.62  90 1.62
  29  0.017  0.338  0.832-  99 1.61  84 1.63
  30  0.988  0.671  0.174-  88 1.62  85 1.62
  31  0.647  0.641  0.505- 103 1.61  86 1.62
  32  0.343  0.994  0.475-  87 1.59 110 1.71
  33  0.995  0.338  0.499- 105 1.61  89 1.64
  34  0.337  0.351  0.482-  98 1.61  92 1.63
  35  0.987  0.643  0.505- 102 1.62  94 1.62
  36  0.650  0.008  0.515- 100 1.61  96 1.64
  37  0.118  0.244  0.130-  83 1.61  75 1.62
  38  0.888  0.752  0.855-  76 1.62 108 1.77 113 2.35
  39  0.762  0.879  0.112-  82 1.60  77 1.61
  40  0.227  0.108  0.870-  78 1.61  81 1.62
  41  0.113  0.883  0.127-  79 1.61  85 1.61
  42  0.876  0.124  0.861-  84 1.61  80 1.63
  43  0.775  0.557  0.468-  86 1.61  94 1.61
  44  0.536  0.088  0.175-  93 1.62 109 1.79 111 2.31
  45  0.415  0.210  0.468-  92 1.60  87 1.64
  46  0.902  0.454  0.195-  88 1.61  91 1.63
  47  0.785  0.207  0.452-  89 1.60  96 1.63
  48  0.547  0.457  0.196-  90 1.61  95 1.62
  49  0.449  0.896  0.807- 106 1.62  97 1.64
  50  0.209  0.427  0.543- 105 1.62  98 1.62
  51  0.123  0.557  0.802-  99 1.61 104 1.62
  52  0.579  0.788  0.520- 103 1.61 100 1.64
  53  0.450  0.536  0.801- 107 1.62 101 1.63
  54  0.203  0.777  0.545- 102 1.58 110 1.74
  55  1.000  0.261  0.995-  84 1.62  75 1.63
  56  0.990  0.728  0.003-  76 1.62  85 1.63
  57  0.734  0.714  1.000-  77 1.60 108 1.72
  58  0.256  0.266  0.992-  78 1.63  83 1.63
  59  0.271  0.004  0.004-  81 1.63  79 1.64
  60  0.662  0.591  0.335-  86 1.62  95 1.63
  61  0.631  0.049  0.342-  96 1.60 109 1.72
  62  0.442  0.110  0.325-  93 1.61  87 1.63
  63  0.920  0.584  0.336-  94 1.62  88 1.63
  64  0.940  0.348  0.331-  89 1.62  91 1.64
  65  0.405  0.323  0.323-  92 1.62  90 1.63
  66  0.359  0.951  0.667-  97 1.59 110 1.74
  67  0.355  0.410  0.655-  98 1.62 107 1.64
  68  0.057  0.409  0.666- 105 1.62  99 1.63
  69  0.576  0.897  0.667- 106 1.61 100 1.62
  70  0.567  0.660  0.662- 103 1.61 101 1.63
  71  0.055  0.639  0.671- 102 1.64 104 1.64
  72  0.731  0.012  0.994-  80 1.66  82 1.67 111 2.49
  73  0.755  0.442  0.688- 114 1.47 113 2.24
  74  0.740  0.255  0.669- 114 1.44
  75  0.997  0.229  0.102-  19 1.61  37 1.62   1 1.63  55 1.63  91 3.10  83 3.10  84 3.13  82 3.13

  76  0.002  0.761  0.897-  38 1.62  56 1.62   2 1.62  20 1.63 104 3.06  85 3.12 108 3.17
  77  0.766  0.764  0.100-  57 1.60  39 1.61  21 1.63   3 1.64  95 3.01 108 3.08  85 3.10
  78  0.222  0.222  0.888-  40 1.61  58 1.63  22 1.63   4 1.63 107 3.07  83 3.11  84 3.13
  79  0.224  0.002  0.106-  41 1.61  23 1.61   5 1.63  59 1.64  93 3.04  81 3.07
  80  0.771  0.002  0.890-   6 1.59  24 1.63  42 1.63  72 1.66 106 3.07  82 3.09  84 3.10 108 3.23

[...]

 103  0.556  0.666  0.554-  70 1.61  31 1.61  52 1.61  14 1.67 100 3.04  86 3.07  98 3.10
 104  0.111  0.664  0.772-  13 1.61  20 1.62  51 1.62  71 1.64  76 3.06  99 3.07 102 3.08
 105  0.095  0.431  0.560-  33 1.61  50 1.62  68 1.62  18 1.65  89 3.03  99 3.08 102 3.13
 106  0.555  0.883  0.775-  69 1.61  49 1.62  24 1.62  17 1.64  80 3.07 101 3.08  97 3.08
 107  0.337  0.428  0.762-  22 1.62  53 1.62  15 1.62  67 1.64  78 3.07 101 3.07  98 3.10
 108  0.773  0.767  0.892-  57 1.72   6 1.73  27 1.77  38 1.77  77 3.08 113 3.09 101 3.13  76 3.17
                            80 3.23
 109  0.656  0.096  0.231-  61 1.72   8 1.73  26 1.74  44 1.79  93 3.07 111 3.10  96 3.11  82 3.16
                            91 3.24
 110  0.332  0.900  0.556-  32 1.71  54 1.74  66 1.74  16 1.79  87 3.07  97 3.12 100 3.17 112 3.24

 111  0.560  0.022  0.037-  44 2.31  72 2.49  26 2.54 109 3.10  82 3.16
 112  0.320  0.673  0.479-  16 2.27  18 2.45  14 2.54 110 3.24 102 3.27 100 3.33
 113  0.783  0.602  0.755-  73 2.24  38 2.35  27 2.36 108 3.09
 114  0.797  0.365  0.710-  74 1.44  73 1.47

  LATTYP: Found a hexagonal cell.
 ALAT       =    13.6750001907
 C/A-ratio  =     1.0798537472

  Lattice vectors:

 A1 = (  13.6750001907,   0.0000000000,   0.0000000000)
 A2 = (  -6.8375000954,  11.8428975619,   0.0000000000)
 A3 = (   0.0000000000,   0.0000000000,  14.7670001984)

Analysis of symmetry for initial positions (statically):
 Subroutine PRICEL returns:
 Original cell was already a primitive cell.

 Routine SETGRP: Setting up the symmetry group for a
 hexagonal supercell.

 Subroutine GETGRP returns: Found  1 space group operations
 (whereof  1 operations were pure point group operations)
 out of a pool of 24 trial point group operations.

The static configuration has the point symmetry C_1 .

Analysis of symmetry for dynamics (positions and initial velocities):
 Subroutine PRICEL returns:
 Original cell was already a primitive cell.

[...]

The dynamic configuration has the point symmetry C_1 .

Analysis of structural, dynamic, and magnetic symmetry:
 Subroutine PRICEL returns:
 Original cell was already a primitive cell.

 Routine SETGRP: Setting up the symmetry group for a
 hexagonal supercell.

 Subroutine GETGRP returns: Found  1 space group operations
 (whereof  1 operations were pure point group operations)
 out of a pool of 24 trial point group operations.

The magnetic configuration has the point symmetry C_1 .

 Subroutine INISYM returns: Found  1 space group operations
 (whereof  1 operations are pure point group operations),
 and found     1 'primitive' translations

 KPOINTS: Gamma points only
  k-points in reciprocal lattice
Space group operators:
 irot       det(A)        alpha          n_x          n_y          n_z        tau_x        tau_y        tau_z
    1     1.000000     0.000000     1.000000     0.000000     0.000000     0.000000     0.000000     0.000000

 Subroutine IBZKPT_HF returns following result:

 Found      1 k-points in 1st BZ
 the following      1 k-points will be used (e.g. in the exchange kernel)
[...]
   -.382E+02 0.653E+02 -.725E+02   0.558E+02 -.719E+02 0.745E+02   -.157E+02 0.587E+01 -.176E+01   0.162E-02 -.591E-02 -.568E-02
   0.132E+03 -.211E+03 -.538E+01   -.144E+03 0.231E+03 0.592E+01   0.100E+02 -.182E+02 -.461E+00   -.278E-02 0.679E-02 -.130E-01
   0.154E+03 0.156E+01 -.661E+02   -.177E+03 -.333E+00 0.687E+02   0.199E+02 -.108E+01 -.231E+01   -.406E-02 0.433E-02 -.721E-02
   -.241E+03 -.369E+02 -.363E+02   0.265E+03 0.400E+02 0.403E+02   -.212E+02 -.276E+01 -.352E+01   0.506E-02 -.406E-02 -.116E-01
   -.132E+03 -.215E+03 0.278E+02   0.147E+03 0.231E+03 -.228E+02   -.133E+02 -.142E+02 -.441E+01   -.100E-03 -.664E-03 0.201E-01
   0.261E+03 0.863E+02 0.386E+02   -.281E+03 -.102E+03 -.429E+02   0.172E+02 0.135E+02 0.372E+01   0.522E-03 -.301E-02 0.180E-01
   -.171E+03 0.263E+03 0.562E+02   0.182E+03 -.286E+03 -.572E+02   -.951E+01 0.201E+02 0.844E+00   0.153E-02 0.308E-02 0.198E-01
   0.159E+03 0.230E+03 0.716E+02   -.174E+03 -.247E+03 -.794E+02   0.131E+02 0.154E+02 0.691E+01   -.376E-02 0.427E-02 0.184E-01
   0.127E+03 -.271E+03 0.578E+02   -.141E+03 0.291E+03 -.565E+02   0.119E+02 -.173E+02 -.122E+01   0.734E-03 -.240E-02 0.201E-01
   -.251E+03 -.325E+02 -.897E+01   0.272E+03 0.416E+02 0.168E+02   -.188E+02 -.806E+01 -.697E+01   0.176E-02 -.229E-03 0.200E-01
   -.255E+01 -.117E+03 -.213E+03   0.243E+01 0.124E+03 0.232E+03   0.119E+00 -.589E+01 -.172E+02   -.127E-02 0.812E-02 -.148E-01
   0.378E+02 -.597E+02 0.791E+02   -.483E+02 0.597E+02 -.948E+02   0.936E+01 0.564E-01 0.141E+02   0.326E-03 -.656E-02 -.128E-01
   0.615E+02 0.581E+02 -.171E+03   -.637E+02 -.607E+02 0.180E+03   0.194E+01 0.231E+01 -.768E+01   -.361E-02 -.333E-02 -.166E-01
   -.465E+02 -.333E+02 0.178E+03   0.472E+02 0.323E+02 -.194E+03   -.652E+00 0.880E+00 0.137E+02   0.175E-02 0.341E-02 -.130E-01
   -.684E+02 0.452E+02 -.197E+03   0.713E+02 -.474E+02 0.211E+03   -.259E+01 0.192E+01 -.123E+02   0.374E-02 -.494E-02 -.158E-01
   0.514E+02 -.376E+02 0.176E+03   -.597E+02 0.410E+02 -.195E+03   0.733E+01 -.298E+01 0.166E+02   -.296E-02 0.496E-02 -.129E-01
   0.164E+02 -.130E+03 -.917E+02   -.163E+02 0.132E+03 0.110E+03   -.110E+00 -.214E+01 -.165E+02   0.124E-02 0.514E-03 0.211E-01
   -.658E+01 0.695E+02 0.714E+02   0.177E+02 -.745E+02 -.860E+02   -.991E+01 0.455E+01 0.131E+02   0.104E-02 -.166E-02 -.129E-01
   0.160E+03 0.108E+03 -.180E+03   -.168E+03 -.115E+03 0.202E+03   0.638E+01 0.661E+01 -.199E+02   -.994E-03 0.351E-02 0.193E-01
   -.102E+03 -.556E+02 0.208E+03   0.107E+03 0.569E+02 -.229E+03   -.462E+01 -.116E+01 0.182E+02   0.421E-02 0.248E-02 -.101E-01
   -.157E+03 0.113E+03 -.579E+02   0.164E+03 -.120E+03 0.676E+02   -.586E+01 0.608E+01 -.859E+01   0.249E-02 0.370E-02 0.199E-01
   0.112E+03 -.676E+02 0.187E+03   -.116E+03 0.719E+02 -.205E+03   0.429E+01 -.376E+01 0.152E+02   -.299E-02 0.265E-02 -.985E-02
   0.203E+02 -.525E+02 -.193E+03   -.224E+02 0.541E+02 0.215E+03   0.186E+01 -.135E+01 -.191E+02   0.269E-03 -.155E-02 -.131E-02
   -.184E+02 0.213E+03 0.153E+03   0.183E+02 -.218E+03 -.162E+03   0.130E+00 0.453E+01 0.796E+01   -.164E-02 0.134E-02 0.170E-01
   -.329E+02 -.557E+01 -.273E+03   0.389E+02 0.932E+01 0.294E+03   -.531E+01 -.331E+01 -.187E+02   -.982E-03 -.235E-02 -.256E-03
   -.196E+03 -.127E+03 0.228E+03   0.205E+03 0.135E+03 -.251E+03   -.812E+01 -.747E+01 0.195E+02   -.970E-04 -.362E-02 0.174E-01
   -.608E+02 0.655E+02 -.255E+03   0.655E+02 -.680E+02 0.277E+03   -.413E+01 0.225E+01 -.198E+02   0.104E-02 -.137E-02 -.838E-03
   0.162E+03 -.194E+03 0.144E+03   -.160E+03 0.209E+03 -.153E+03   -.220E+01 -.129E+02 0.794E+01   -.141E-03 -.548E-02 0.172E-01
   0.767E+02 -.200E+03 -.356E+02   -.850E+02 0.217E+03 0.363E+02   0.741E+01 -.151E+02 -.655E+00   -.221E-02 0.733E-02 -.203E-01
   -.109E+03 0.179E+03 -.486E+02   0.115E+03 -.199E+03 0.500E+02   -.538E+01 0.170E+02 -.121E+01   0.298E-02 -.673E-02 -.207E-01
   0.109E+03 0.201E+03 0.148E+02   -.114E+03 -.223E+03 -.252E+02   0.443E+01 0.193E+02 0.927E+01   -.141E-02 -.567E-02 -.210E-01
   -.912E+02 -.209E+03 -.170E+02   0.989E+02 0.228E+03 0.170E+02   -.685E+01 -.171E+02 0.685E-01   0.288E-03 0.675E-02 -.201E-01
   -.190E+03 0.285E+01 -.140E+02   0.213E+03 -.878E+00 0.154E+02   -.202E+02 -.174E+01 -.120E+01   0.306E-02 -.116E-02 -.201E-01
   0.106E+03 -.214E+03 0.306E+02   -.116E+03 0.231E+03 -.311E+02   0.846E+01 -.148E+02 0.369E+00   -.215E-02 -.264E-03 0.840E-02
[...]
   -.158E+02 0.234E+02 -.732E+02   0.182E+02 -.227E+02 0.740E+02   -.213E+01 -.639E+00 -.638E+00   0.666E-03 -.266E-02 0.112E-02
   0.737E+02 -.785E+02 0.485E+02   -.731E+02 0.834E+02 -.492E+02   -.626E+00 -.454E+01 0.656E+00   -.693E-04 -.270E-02 0.117E-01
   -.700E+02 -.502E+02 0.604E+02   0.712E+02 0.518E+02 -.598E+02   -.108E+01 -.150E+01 -.586E+00   -.239E-03 -.146E-02 0.117E-01
   0.106E+02 -.587E+01 -.659E+02   -.105E+02 0.630E+01 0.663E+02   -.982E-01 -.440E+00 -.290E+00   -.447E-03 -.368E-02 0.123E-02
   -.292E+02 0.106E+03 0.515E+02   0.280E+02 -.107E+03 -.514E+02   0.112E+01 0.754E+00 -.167E+00   -.122E-03 0.586E-03 0.118E-01
   0.953E+00 -.368E+02 -.414E+02   -.121E+01 0.373E+02 0.410E+02   0.253E+00 -.437E+00 0.307E+00   -.115E-03 -.915E-03 0.999E-03
   -.560E+02 0.528E+02 -.525E+02   0.556E+02 -.524E+02 0.533E+02   0.396E+00 -.393E+00 -.707E+00   0.183E-03 0.131E-02 0.177E-02
   0.119E+02 0.546E+01 -.292E+01   -.121E+02 -.562E+01 0.449E+01   0.179E+00 0.112E+00 -.160E+01   -.301E-04 -.270E-02 -.765E-02
   -.179E+02 0.431E+02 -.116E+02   0.190E+02 -.429E+02 0.120E+02   -.112E+01 -.311E+00 -.451E+00   0.837E-04 -.408E-03 -.276E-02
   0.792E+02 -.523E+02 0.253E+02   -.796E+02 0.531E+02 -.258E+02   0.396E+00 -.790E+00 0.484E+00   0.518E-04 -.214E-02 0.870E-02
   0.226E+03 0.947E+02 0.173E+03   -.224E+03 -.936E+02 -.169E+03   -.146E+01 -.106E+01 -.456E+01   -.100E-02 -.179E-02 -.370E-01
   -.286E+01 0.132E+02 0.565E+03   0.259E+01 -.993E+01 -.562E+03   0.247E+00 -.309E+01 -.257E+01   -.848E-03 -.799E-02 0.228E-01
   0.191E+02 0.104E+03 0.415E+02   -.202E+02 -.102E+03 -.395E+02   0.973E+00 -.155E+01 -.192E+01   0.214E-02 -.113E-01 0.354E-02
   -.592E+02 0.403E+02 -.245E+03   0.660E+02 -.411E+02 0.250E+03   -.761E+01 0.214E+00 -.534E+01   -.184E-02 0.139E-02 0.107E-01
   -.281E+02 -.120E+02 0.399E+01   -.568E-13 -.284E-12 0.199E-12   0.241E+02 0.109E+02 -.385E+01   0.761E-02 -.120E-01 0.129E-01

 POSITION                                       TOTAL-FORCE (eV/Angst)
     11.61298      1.17112      1.73534        -0.224692      0.166519     -0.199211
     -4.60849     10.52099     13.02550         0.191331     -0.065389      0.188663
      6.79602      9.41552      1.89667         0.047204     -0.263532     -0.265298
     -0.04849      2.34792     12.78870         0.004755      0.251942      0.259363
      1.96419      1.23280      1.71998         0.237235      0.127363     -0.173435
      4.78691     10.71575     13.01319        -0.359565      0.139079      0.103346
      4.66915      5.05490      6.73249        -0.184501      0.135609     -0.250515
      8.84909      2.77380      3.24394         0.336999      0.159364      0.089775
      6.78058      1.68350      6.95439        -0.003430     -0.318067     -0.352113
      6.79342      6.39364      3.05529         0.002016      0.215539      0.233398
      8.90813      5.04163      6.85647         0.193106      0.145372     -0.287017
      4.74308      2.80917      2.70499        -0.231287     -0.100041      0.346471
     -2.13951      9.19788     11.45651        -0.133895      0.017892     -0.081479
      1.90683      6.74870      7.74832         0.242077     -0.137771      0.297295
      0.09625      5.31389     11.39354        -0.021324     -0.151516     -0.089968
      0.04550     10.09055      7.83568         0.297200      0.224815      0.243657
      2.08698      8.97125     11.89490         0.149857      0.131654     -0.357228
     -2.12055      6.63920      7.86521        -0.181513     -0.142370      0.310339
     11.20383      3.75252      2.38736        -0.157270     -0.328725      0.011950
     -4.27992      7.92891     12.42212         0.151067      0.351836     -0.110114
      4.67299      7.98602      2.56733         0.435774     -0.115248     -0.080101
      2.12151      3.75330     12.09648        -0.396080      0.077929      0.056484
      4.24870      0.19028      2.63563        -0.100897      0.366165     -0.210739
      2.37528     11.62234     12.20675         0.162625     -0.351868      0.069554
     -2.30106     11.69690     12.37438        -0.222149     -0.321734     -0.017401
      9.23463      0.05661      2.39993         0.310492      0.234280     -0.244901
      4.57282      7.97956     12.00864        -0.446713      0.128456     -0.053705
      2.33161      3.83721      2.32866         0.201182     -0.365051     -0.007637
     -2.07937      3.99944     12.28020         0.391560     -0.013913     -0.044839
      8.91702      7.95107      2.57159        -0.424974     -0.058207     -0.059795
      4.46119      7.58731      7.46208        -0.255799     -0.287425     -0.088897
     -2.10578     11.77077      7.00813         0.352109      0.319536      0.021385
     11.29468      4.00500      7.36202        -0.194384      0.404209      0.009786
      2.21178      4.15231      7.11097         0.259567      0.313572      0.122504
      9.09352      7.61561      7.46428         0.234949     -0.342366     -0.029664
      8.83985      0.09501      7.60431        -0.370484     -0.141268     -0.147032
     -0.05592      2.88681      1.91404         0.006543     -0.118614     -0.342403
      7.00351      8.90338     12.62429         0.302426      0.051359      0.376531
      4.41205     10.41545      1.64916         0.048658      0.032664     -0.160452
      2.36812      1.28003     12.85221        -0.014570      0.008077      0.282378
     -4.48770     10.45688      1.87311        -0.050198      0.045661     -0.251280
     11.12590      1.47161     12.71277         0.151269     -0.041113      0.330444
      6.78607      6.59163      6.91612         0.003002     -0.050595     -0.332809
      6.73437      1.03689      2.58234        -0.278598      0.145794      0.369771
      4.24427      2.48874      6.90681         0.128551      0.136533     -0.395909
      9.23211      5.37484      2.88581        -0.098417     -0.027286      0.362889
      9.31367      2.45026      6.67113        -0.112995      0.133183     -0.194254
      4.35216      5.41333      2.89485         0.093869     -0.071694      0.306514
      0.00827     10.60987     11.91833         0.018973     -0.033304     -0.379020
     -0.05636      5.05609      8.01914        -0.000111      0.119850      0.163626
     -2.12137      6.59193     11.85033        -0.094726     -0.055451     -0.377516
      2.53321      9.33219      7.68147        -0.180164     -0.168985      0.386410
      2.48589      6.34774     11.83519        -0.102368      0.029668     -0.400140
     -2.54103      9.20205      8.04857        -0.050510     -0.343217      0.170330
     11.88140      3.09620     14.69663         0.153480     -0.303585     -0.012905
      8.56169      8.61745      0.04677        -0.104482      0.339323      0.009742
      5.15308      8.45754     14.76678         0.104381      0.390772      0.281040
      1.68155      3.14582     14.64524        -0.143340     -0.349069      0.004185
      3.67866      0.04611      0.06070        -0.408542     -0.029608     -0.012079
      5.01138      6.99461      4.94802         0.174416     -0.300783      0.005689
[...]
      1.55686     10.52955      8.24242        -0.064566      0.039875     -0.030060
      3.09583      7.79111     11.39167         0.144815      0.011734      0.100433
     -3.23044      7.81099      8.33041        -0.004682      0.068605     -0.055239
      3.04925      7.88512      8.17608         0.051491      0.031886      0.000872
     -3.02566      7.86058     11.40020        -0.018561     -0.027976      0.063359
     -1.65212      5.10992      8.27140        -0.011475     -0.026155     -0.021444
      1.54955     10.45245     11.44551         0.008571      0.032168      0.009486
      1.69130      5.06354     11.25319         0.044989      0.006299      0.040462
      5.32940      9.08006     13.16852         0.039082     -0.058662     -0.070919
      8.31617      1.13597      3.41391        -0.038529     -0.060940     -0.035449
     -1.61158     10.66004      8.21479         0.017544      0.003207     -0.036536
      7.50970      0.26533      0.54833        -0.007211     -0.018510      0.004604
     -0.21916      7.96485      7.07451         0.003471      0.012242     -0.032165
      6.59662      7.12508     11.14231        -0.038619      0.111917      0.023650
      8.40876      4.32408     10.48795        -1.356438     -0.592104     -1.173614
    total drift:                               -0.004847     -0.005665      0.010614

  FREE ENERGIE OF THE ION-ELECTRON SYSTEM (eV)
  free  energy   TOTEN  =     -1199.01856657 eV

  energy  without entropy=    -1199.01856657  energy(sigma->0) =    -1199.01856657

 stress matrix after NEB project (eV)
      0.00000      0.00000      0.00000
      0.00000      0.00000      0.00000
      0.00000      0.00000      0.00000
  FORCES: max atom, RMS     1.888883    0.430243
  FORCE total and by dimension    4.593736    1.656079
  Stress total and by dimension    0.000000    0.000000

 total charge

[...]

 magnetization (x)

# of ion       s       p       d       tot
    1        0.000   0.000   0.000   0.000
    2       -0.000  -0.000   0.000  -0.000
    3        0.000   0.000   0.000   0.000
    4       -0.000  -0.000   0.000  -0.000
    5        0.000   0.000   0.000   0.000
    6        0.000  -0.000   0.000  -0.000
    7        0.000   0.000   0.000   0.000
    8        0.000   0.000   0.000   0.000
    9       -0.000   0.000   0.000  -0.000
   10       -0.000   0.000   0.000   0.000
   11       -0.000   0.000   0.000   0.000
   12        0.000   0.000   0.000   0.000
   13       -0.000  -0.000   0.000  -0.000
   14       -0.000  -0.000   0.000  -0.000
   15       -0.000  -0.000   0.000  -0.000
   16       -0.000  -0.000   0.000  -0.000
   17       -0.000  -0.000   0.000  -0.000
   18       -0.000  -0.000   0.000  -0.000
   19        0.000   0.000   0.000   0.000
   20       -0.000  -0.000   0.000  -0.000
   21        0.000   0.000   0.000   0.000
   22       -0.000  -0.000   0.000  -0.000
   23        0.000   0.000   0.000   0.000
   24        0.000  -0.000   0.000  -0.000
   25        0.000  -0.000   0.000  -0.000
   26        0.000   0.000   0.000   0.000
   27        0.000  -0.000   0.000  -0.000
   28        0.000   0.000   0.000   0.000
   29       -0.000  -0.000   0.000  -0.000
   30        0.000   0.000   0.000   0.000
   31       -0.000  -0.000   0.000  -0.000
   32       -0.000  -0.000   0.000  -0.000
   33        0.000  -0.000   0.000  -0.000
   34        0.000  -0.000   0.000  -0.000
   35        0.000  -0.000   0.000  -0.000
   36       -0.000  -0.000   0.000  -0.000
   37        0.000   0.000   0.000   0.000
   38       -0.000  -0.000   0.000  -0.000
   39        0.000   0.000   0.000   0.000
   40       -0.000  -0.000   0.000  -0.000
   41        0.000   0.000   0.000   0.000
   42       -0.000  -0.000   0.000  -0.000
   43       -0.000   0.000   0.000   0.000
   44        0.000   0.000   0.000   0.000
   45       -0.000  -0.000   0.000  -0.000
   46        0.000   0.000   0.000   0.000
   47       -0.000  -0.000   0.000  -0.000
   48       -0.000   0.000   0.000   0.000
   49        0.000  -0.000   0.000  -0.000
   50       -0.000  -0.000   0.000  -0.000
   51       -0.000  -0.000   0.000  -0.000
   52        0.000  -0.000   0.000  -0.000
   53       -0.000  -0.000   0.000  -0.000
   54        0.000  -0.000   0.000  -0.000
   55        0.000   0.000   0.000   0.000
   56       -0.000   0.000   0.000   0.000
   57        0.000   0.000   0.000   0.000
   58        0.000   0.000   0.000   0.000
   59        0.000   0.000   0.000   0.000
   60        0.000   0.000   0.000   0.000
[...]
  100        0.000   0.000   0.000   0.000
  101        0.000   0.000   0.000   0.000
  102        0.000   0.000   0.000   0.000
  103        0.000   0.000   0.000   0.000
  104        0.000   0.000   0.000   0.000
  105       -0.000   0.000   0.000   0.000
  106        0.000   0.000   0.000   0.000
  107        0.000   0.000   0.000   0.000
  108        0.000  -0.000   0.000   0.000
  109       -0.000  -0.000   0.000  -0.000
  110        0.000   0.000   0.000   0.000
  111       -0.000  -0.000   0.000   0.000
  112       -0.000   0.000   0.000   0.000
  113        0.000   0.000   0.000   0.000
  114       -0.000   0.000   0.000   0.000
tot         -0.000   0.000   0.000   0.000