 vasp.5.4.4.18Apr17-6-g9f103f2a35 (build Dec 31 2018 11:41:54) complex

 executed on             LinuxIFC date 2022.07.07  10:50:51

 INCAR:
 POTCAR:   PAW_PBE O 08Apr2002
 POTCAR:   PAW_PBE Si 05Jan2001
 POTCAR:   PAW_PBE Al 04Jan2001
 POTCAR:   PAW_PBE Ag 06Sep2000
 POTCAR:    PAW_PBE S 17Jan2003
 POTCAR:   PAW_PBE H 15Jun2001
 POTCAR:   PAW_PBE O 08Apr2002
   VRHFIN =O: s2p4

   TITEL  = PAW_PBE O 08Apr2002
   POMASS =   16.000; ZVAL   =    6.000    mass and valenz
   ENMAX  =  400.000; ENMIN  =  300.000 eV
   QCUT   =   -5.520; QGAM   =   11.041    optimization parameters

   Description
     l     E      TYP  RCUT    TYP  RCUT
     0   .000     23  1.200
     0  -.700     23  1.200
     1   .000     23  1.520
     1   .600     23  1.520
     2   .000      7  1.500

 POTCAR:   PAW_PBE Si 05Jan2001
   VRHFIN =Si: s2p2

   TITEL  = PAW_PBE Si 05Jan2001
   POMASS =   28.085; ZVAL   =    4.000    mass and valenz
   ENMAX  =  245.345; ENMIN  =  184.009 eV
   QCUT   =   -4.246; QGAM   =    8.493    optimization parameters

[...]

 POTCAR:   PAW_PBE Al 04Jan2001
   VRHFIN =Al: s2p1

[...]

 POTCAR:   PAW_PBE Ag 06Sep2000
   VRHFIN =Ag : s1 d10

   TITEL  = PAW_PBE Ag 06Sep2000
   POMASS =  107.868; ZVAL   =   11.000    mass and valenz
   ENMAX  =  249.846; ENMIN  =  187.385 eV
   QCUT   =   -4.285; QGAM   =    8.570    optimization parameters

[...]

 POTCAR:    PAW_PBE S 17Jan2003
   VRHFIN =S : s2p4

   TITEL  = PAW_PBE S 17Jan2003
   POMASS =   32.066; ZVAL   =    6.000    mass and valenz
   ENMAX  =  280.000; ENMIN  =  194.016 eV
   QCUT   =   -4.360; QGAM   =    8.721    optimization parameters

[...]

 POTCAR:   PAW_PBE H 15Jun2001
   VRHFIN =H: ultrasoft test

   TITEL  = PAW_PBE H 15Jun2001
   POMASS =    1.000; ZVAL   =    1.000    mass and valenz
   ENMAX  =  250.000; ENMIN  =  200.000 eV
   QCUT   =   -5.749; QGAM   =   11.498    optimization parameters

   Description
     l     E      TYP  RCUT    TYP  RCUT
     0   .000     23  1.100
     0   .500     23  1.100
     1  -.300     23  1.100

 Optimization of the real space projectors (new method)

 maximal supplied QI-value         = 24.76
 optimisation between [QCUT,QGAM] = [ 10.15, 20.30] = [ 28.85,115.39] Ry
 Optimized for a Real-space Cutoff    1.51 Angstroem

   l    n(q)    QCUT    max X(q) W(low)/X(q) W(high)/X(q)  e(spline)
   0      9    10.150     4.192    0.32E-04    0.13E-04    0.13E-06
   0      9    10.150     8.473    0.18E-03    0.20E-03    0.43E-06
   1      9    10.150     2.474    0.32E-04    0.33E-04    0.64E-07
   1      9    10.150     3.912    0.13E-03    0.16E-03    0.33E-06
 Optimization of the real space projectors (new method)

[...]

   l    n(q)    QCUT    max X(q) W(low)/X(q) W(high)/X(q)  e(spline)
   0      9    10.119     5.487    0.15E-04    0.47E-05    0.66E-08
   0      9    10.119    85.627    0.51E-04    0.92E-04    0.63E-07
   1      8    10.119     3.530    0.37E-05    0.76E-05    0.28E-07
   1      8    10.119    42.714    0.16E-03    0.16E-03    0.23E-06
 Optimization of the real space projectors (new method)

 maximal supplied QI-value         = 34.20
 optimisation between [QCUT,QGAM] = [  9.92, 20.18] = [ 27.55,114.04] Ry
 Optimized for a Real-space Cutoff    1.34 Angstroem

   l    n(q)    QCUT    max X(q) W(low)/X(q) W(high)/X(q)  e(spline)
   0      8     9.919     4.436    0.31E-04    0.59E-04    0.66E-07
   0      8     9.919    16.131    0.16E-03    0.20E-03    0.35E-06
   1      8     9.919     4.654    0.19E-03    0.46E-03    0.40E-06
 PAW_PBE O 08Apr2002                    :
 PAW_PBE Si 05Jan2001                   :
 PAW_PBE Al 04Jan2001                   :
 PAW_PBE Ag 06Sep2000                   :
  PAW_PBE S 17Jan2003                   :
 PAW_PBE H 15Jun2001                    :

 POSCAR: O  C
  positions in direct lattice
  velocities in cartesian coordinates
 exchange correlation table for  LEXCH =        8
   RHO(1)=    0.500       N(1)  =     2000
   RHO(2)=  100.500       N(2)  =     4000

 VTST: version 3.2, (02/03/18)

 CHAIN: initializing optimizer

 OPT: Using VASP Quick-Min optimizer
 CHAIN: Read ICHAIN            1

 POSCAR: O  C
  positions in direct lattice
  velocities in cartesian coordinates
 CHAIN: Running the Dynamical Matrix

 ion  position               nearest neighbor table
   1  0.899  0.099  0.119-  73 1.63  80 1.63
   2  0.101  0.887  0.881-  79 1.62  74 1.63
   3  0.892  0.792  0.126-  83 1.61  75 1.63
   4  0.095  0.198  0.868-  76 1.63  82 1.63
   5  0.196  0.105  0.118-  77 1.63  81 1.63
   6  0.802  0.903  0.880-  78 1.59 106 1.73
   7  0.552  0.426  0.458-  84 1.62  90 1.63
   8  0.763  0.236  0.220-  89 1.59 107 1.73
   9  0.567  0.143  0.472-  94 1.65  85 1.65
  10  0.766  0.538  0.205-  93 1.63  86 1.63
  11  0.864  0.425  0.466-  92 1.63  87 1.64
  12  0.464  0.237  0.185-  88 1.63  91 1.64
  13  0.232  0.775  0.774- 102 1.61  95 1.64
  14  0.424  0.569  0.525-  96 1.66 101 1.67 110 2.55
  15  0.229  0.446  0.772-  97 1.61 105 1.62
  16  0.427  0.850  0.533-  98 1.63 108 1.79 110 2.27
  17  0.530  0.757  0.806-  99 1.63 104 1.64
  18  0.124  0.560  0.533- 103 1.65 100 1.68 110 2.44
  19  0.977  0.317  0.163-  73 1.61  89 1.63
  20  0.023  0.669  0.843- 102 1.61  74 1.63
  21  0.678  0.674  0.177-  93 1.61  75 1.63
  22  0.313  0.315  0.820- 105 1.62  76 1.63
  23  0.318  0.016  0.178-  77 1.61  91 1.63
  24  0.664  0.980  0.828- 104 1.62  78 1.63
  25  0.321  0.984  0.839-  79 1.62  95 1.63
  26  0.678  0.007  0.163-  80 1.60 107 1.74 109 2.52
  27  0.668  0.671  0.816-  99 1.61 106 1.77 111 2.28
  28  0.332  0.325  0.159-  81 1.62  88 1.62
  29  0.015  0.336  0.832-  97 1.61  82 1.62
  30  0.987  0.673  0.178-  86 1.62  83 1.62
  31  0.646  0.641  0.506- 101 1.61  84 1.62
  32  0.343  0.993  0.476-  85 1.59 108 1.71
  33  0.995  0.337  0.499- 103 1.61  87 1.63
  34  0.334  0.349  0.483-  96 1.61  90 1.63
  35  0.985  0.642  0.507- 100 1.62  92 1.62
  36  0.648  0.007  0.516-  98 1.61  94 1.64
  37  0.118  0.245  0.130-  81 1.61  73 1.62
  38  0.882  0.742  0.861-  74 1.61 106 1.76 111 2.49
  39  0.762  0.880  0.117-  80 1.60  75 1.61
  40  0.226  0.107  0.872-  76 1.61  79 1.62
  41  0.110  0.884  0.132-  77 1.61  83 1.61
  42  0.875  0.122  0.862-  82 1.61  78 1.63
  43  0.771  0.551  0.475-  84 1.62  92 1.62
  44  0.536  0.088  0.176-  91 1.62 107 1.79 109 2.32
  45  0.414  0.209  0.469-  90 1.60  85 1.64
  46  0.904  0.455  0.198-  86 1.61  89 1.63
  47  0.784  0.206  0.455-  87 1.60  94 1.63
  48  0.546  0.457  0.199-  88 1.61  93 1.62
  49  0.448  0.896  0.808- 104 1.62  95 1.64
  50  0.209  0.428  0.545-  96 1.62 103 1.62
  51  0.123  0.555  0.804-  97 1.61 102 1.62
  52  0.578  0.787  0.522- 101 1.61  98 1.64
  53  0.447  0.535  0.802- 105 1.62  99 1.63
  54  0.201  0.777  0.548- 100 1.58 108 1.74
  55  0.998  0.261  0.996-  82 1.62  73 1.63
  56  0.996  0.728  0.006-  74 1.63  83 1.63
  57  0.726  0.714  0.002-  75 1.60 106 1.73
  58  0.256  0.266  0.992-  76 1.63  81 1.63
  59  0.265  0.999  0.005-  79 1.63  77 1.64
  60  0.666  0.589  0.337-  84 1.61  93 1.63
  61  0.631  0.051  0.342-  94 1.60 107 1.72
  62  0.440  0.109  0.326-  91 1.61  85 1.63
  63  0.913  0.583  0.338-  92 1.61  86 1.63
  64  0.938  0.346  0.332-  87 1.62  89 1.64
  65  0.403  0.322  0.324-  90 1.62  88 1.63
  66  0.359  0.952  0.668-  95 1.59 108 1.74
  67  0.355  0.409  0.656-  96 1.62 105 1.64
  68  0.056  0.409  0.666- 103 1.62  97 1.63
  69  0.575  0.897  0.669- 104 1.61  98 1.62
  70  0.566  0.659  0.663- 101 1.61  99 1.63
  71  0.052  0.636  0.672- 100 1.64 102 1.64
  72  0.731  0.008  0.995-  78 1.66  80 1.67 109 2.51
  73  0.996  0.230  0.103-  19 1.61  37 1.62  55 1.63   1 1.63  89 3.10  81 3.10  82 3.13  80 3.13

  74  1.000  0.758  0.899-  38 1.61  56 1.63  20 1.63   2 1.63 102 3.07  83 3.11 106 3.17
  75  0.764  0.764  0.102-  57 1.60  39 1.61  21 1.63   3 1.63  93 3.01 106 3.08  83 3.13
  76  0.222  0.221  0.889-  40 1.61  58 1.63   4 1.63  22 1.63 105 3.06  81 3.11  82 3.13
  77  0.222  0.002  0.108-  41 1.61  23 1.61   5 1.63  59 1.64  91 3.05  79 3.08  83 3.14
  78  0.770  1.000  0.891-   6 1.59  42 1.63  24 1.63  72 1.66 104 3.07  82 3.10  80 3.11 106 3.22

[...]

 101  0.555  0.665  0.555-  70 1.61  31 1.61  52 1.61  14 1.67  98 3.04  84 3.07  96 3.10
 102  0.110  0.662  0.773-  13 1.61  20 1.61  51 1.62  71 1.64  97 3.07  74 3.07 100 3.07
 103  0.094  0.431  0.561-  33 1.61  50 1.62  68 1.62  18 1.65  87 3.02  97 3.07 100 3.12
 104  0.554  0.882  0.776-  69 1.61  24 1.62  49 1.62  17 1.64  78 3.07  95 3.08  99 3.08
 105  0.336  0.426  0.763-  22 1.62  15 1.62  53 1.62  67 1.64  76 3.06  99 3.07  96 3.09
 106  0.771  0.764  0.894-  57 1.73   6 1.73  38 1.76  27 1.77  75 3.08 111 3.10  99 3.14  74 3.17
                            78 3.22
 107  0.656  0.097  0.232-  61 1.72   8 1.73  26 1.74  44 1.79  91 3.07 109 3.10  94 3.12  80 3.17
                            89 3.23
 108  0.331  0.899  0.558-  32 1.71  54 1.74  66 1.74  16 1.79  85 3.08  95 3.11  98 3.17 110 3.25

 109  0.561  0.022  0.038-  44 2.32  72 2.51  26 2.52 107 3.10  80 3.17
 110  0.319  0.671  0.481-  16 2.27  18 2.44  14 2.55 108 3.25 100 3.27  98 3.33
 111  0.753  0.572  0.771-  27 2.28 112 2.39  38 2.49 106 3.10
 112  0.756  0.412  0.709- 114 1.36 113 1.36 111 2.39
 113  0.869  0.467  0.690- 112 1.36
 114  0.730  0.420  0.622- 112 1.36

  LATTYP: Found a hexagonal cell.
 ALAT       =    13.6750001907
 C/A-ratio  =     1.0798537472

  Lattice vectors:

 A1 = (  13.6750001907,   0.0000000000,   0.0000000000)
 A2 = (  -6.8375000954,  11.8428975619,   0.0000000000)
 A3 = (   0.0000000000,   0.0000000000,  14.7670001984)

Analysis of symmetry for initial positions (statically):
 Subroutine PRICEL returns:
 Original cell was already a primitive cell.

 Routine SETGRP: Setting up the symmetry group for a
 hexagonal supercell.

 Subroutine GETGRP returns: Found  1 space group operations
 (whereof  1 operations were pure point group operations)
 out of a pool of 24 trial point group operations.

The static configuration has the point symmetry C_1 .

Analysis of symmetry for dynamics (positions and initial velocities):
 Subroutine PRICEL returns:
 Original cell was already a primitive cell.

[...]

The dynamic configuration has the point symmetry C_1 .

Analysis of structural, dynamic, and magnetic symmetry:
 Subroutine PRICEL returns:
 Original cell was already a primitive cell.

 Routine SETGRP: Setting up the symmetry group for a
 hexagonal supercell.

 Subroutine GETGRP returns: Found  1 space group operations
 (whereof  1 operations were pure point group operations)
 out of a pool of 24 trial point group operations.

The magnetic configuration has the point symmetry C_1 .

 Subroutine INISYM returns: Found  1 space group operations
 (whereof  1 operations are pure point group operations),
 and found     1 'primitive' translations

 KPOINTS: Gamma points only
  k-points in reciprocal lattice
Space group operators:
 irot       det(A)        alpha          n_x          n_y          n_z        tau_x        tau_y        tau_z
    1     1.000000     0.000000     1.000000     0.000000     0.000000     0.000000     0.000000     0.000000

 SYSTEM =  zeolite
 POSCAR =  O  C

[...]
 DYNMAT: Loop at J=          69
 DYNMAT: Before DIRKAR
 DYNMAT: After DIRKAR
       1.722414840813933      10.627933060879316       9.872069533178344
 DYNMAT: Loop at J=          70
 DYNMAT: Before DIRKAR
 DYNMAT: After DIRKAR
       3.229800665783360       7.806877370656424       9.789195736269738
 DYNMAT: Loop at J=          71
 DYNMAT: Before DIRKAR
 DYNMAT: After DIRKAR
      -3.630588081840231       7.529469946874441       9.922653585000969
 DYNMAT: Loop at J=          72
 DYNMAT: Before DIRKAR
 DYNMAT: After DIRKAR
       9.938627735326643       0.098177889760464      14.697848708782601
 DYNMAT: Loop at J=          73
 DYNMAT: Before DIRKAR
 DYNMAT: After DIRKAR
      12.054796618641914       2.719917110321445       1.514553526244488
 DYNMAT: Loop at J=          74
 DYNMAT: Before DIRKAR
 DYNMAT: After DIRKAR
       8.482941112961473       8.981575952216653      13.272868138053015
 DYNMAT: Loop at J=          75
 DYNMAT: Before DIRKAR
 DYNMAT: After DIRKAR
       5.220582343335267       9.042305451431030       1.511189018986399
 DYNMAT: Loop at J=          76
 DYNMAT: Before DIRKAR
 DYNMAT: After DIRKAR
       1.519774035888934       2.620603883053832      13.126975419271050
 DYNMAT: Loop at J=          77
 DYNMAT: Before DIRKAR
 DYNMAT: After DIRKAR
       3.021127343973493       0.022245303992699       1.593222022022367
 DYNMAT: Loop at J=          78
 DYNMAT: Before DIRKAR
 DYNMAT: After DIRKAR
       3.699898765370625      11.838059767459763      13.150095609086977
 DYNMAT: Loop at J=          79
 DYNMAT: Before DIRKAR
 DYNMAT: After DIRKAR
      -3.685547457986639      11.762720058468437      13.280621141090471
 DYNMAT: Loop at J=          80
 DYNMAT: Before DIRKAR
 DYNMAT: After DIRKAR
       3.691190825454965      11.827660114954160       1.488438568107279
 DYNMAT: Loop at J=          81
 DYNMAT: Before DIRKAR
 DYNMAT: After DIRKAR
       1.482308377065388       2.777176383827880       1.464512530252171
 DYNMAT: Loop at J=          82
 DYNMAT: Before DIRKAR
 DYNMAT: After DIRKAR
      12.063976517799119       2.695898880268853      13.154981459497149
 DYNMAT: Loop at J=          83
 DYNMAT: Before DIRKAR
 DYNMAT: After DIRKAR
       8.349477310013352       9.106163080652440       1.614589813628549
 DYNMAT: Loop at J=          84
 DYNMAT: Before DIRKAR
 DYNMAT: After DIRKAR
       5.234214073925365       6.529980029890876       6.522474486158711
 DYNMAT: Loop at J=          85
 DYNMAT: Before DIRKAR
 DYNMAT: After DIRKAR
       5.259572026208092       1.300052428640642       6.438493267361872
 DYNMAT: Loop at J=          86
 DYNMAT: Before DIRKAR
 DYNMAT: After DIRKAR
       8.356520913135153       6.647925981870379       3.391665318843861
 DYNMAT: Loop at J=          87
 DYNMAT: Before DIRKAR
 DYNMAT: After DIRKAR
       9.975369160064030       3.867835640869457       6.431223260200019
 DYNMAT: Loop at J=          88
 DYNMAT: Before DIRKAR
 DYNMAT: After DIRKAR
       3.687034598238330       3.963949954262264       3.206290882633069
 DYNMAT: Loop at J=          89
 DYNMAT: Before DIRKAR
 DYNMAT: After DIRKAR
       9.899374693832540       3.964598688217378       3.365246853439589
 DYNMAT: Loop at J=          90
 DYNMAT: Before DIRKAR
 DYNMAT: After DIRKAR
       3.604260483083936       3.849545794526751       6.374505757630937
 DYNMAT: Loop at J=          91
 DYNMAT: Before DIRKAR
 DYNMAT: After DIRKAR
       5.249459839923016       1.332231554867812       3.203607718403560
 DYNMAT: Loop at J=          92
 DYNMAT: Before DIRKAR
 DYNMAT: After DIRKAR
       8.330419037022537       6.513571575114615       6.551798775384033
 DYNMAT: Loop at J=          93
 DYNMAT: Before DIRKAR
 DYNMAT: After DIRKAR
       5.231443444353840       6.683730408792306       3.382465255805698
 DYNMAT: Loop at J=          94
 DYNMAT: Before DIRKAR
 DYNMAT: After DIRKAR
       8.276436395341836       1.192385303704339       6.538251630686960
 DYNMAT: Loop at J=          95
 DYNMAT: Before DIRKAR
 DYNMAT: After DIRKAR
      -1.530853316469375      10.697814856295373      11.350290884303648
 DYNMAT: Loop at J=          96
 DYNMAT: Before DIRKAR
 DYNMAT: After DIRKAR
       1.541340932695924       5.170474312802150       8.174355160789162
 DYNMAT: Loop at J=          97
 DYNMAT: Before DIRKAR
 DYNMAT: After DIRKAR
      -1.527157714831434       5.165799102860452      11.359697631702932
 DYNMAT: Loop at J=          98
 DYNMAT: Before DIRKAR
 DYNMAT: After DIRKAR
       1.538897608877932      10.517216826808779       8.263677143275864
 DYNMAT: Loop at J=          99
 DYNMAT: Before DIRKAR
 DYNMAT: After DIRKAR
       3.074678826458829       7.776671330528481      11.408190054085733
 DYNMAT: Loop at J=         100
 DYNMAT: Before DIRKAR
 DYNMAT: After DIRKAR
      -3.245294929463288       7.800883197538762       8.352479393371787
 DYNMAT: Loop at J=         101
 DYNMAT: Before DIRKAR
 DYNMAT: After DIRKAR
       3.045388814426062       7.878765292453438       8.193612675545918
 DYNMAT: Loop at J=         102
 DYNMAT: Before DIRKAR
 DYNMAT: After DIRKAR
      -3.024279204005930       7.843040291181306      11.417619976552579
 DYNMAT: Loop at J=         103
 DYNMAT: Before DIRKAR
 DYNMAT: After DIRKAR
      -1.663292948664592       5.107761537605352       8.289218110934442
 DYNMAT: Loop at J=         104
 DYNMAT: Before DIRKAR
 DYNMAT: After DIRKAR
       1.538442876951958      10.448267953527173      11.465828279902560
 DYNMAT: Loop at J=         105
 DYNMAT: Before DIRKAR
 DYNMAT: After DIRKAR
       1.677628966151600       5.044615069838519      11.263555480359701
 DYNMAT: Loop at J=         106
 DYNMAT: Before DIRKAR
 DYNMAT: After DIRKAR
       5.312886190812956       9.053698159133212      13.202695443372628
 DYNMAT: Loop at J=         107
 DYNMAT: Before DIRKAR
 DYNMAT: After DIRKAR
       8.302695777223823       1.154001413353897       3.420848686684855
 DYNMAT: Loop at J=         108
 DYNMAT: Before DIRKAR
 DYNMAT: After DIRKAR
      -1.625410154642936      10.651133931323127       8.240646194424583
 DYNMAT: Loop at J=         109
 DYNMAT: Before DIRKAR
 DYNMAT: After DIRKAR
       7.514449994978984       0.261530800339346       0.557189682992698
 DYNMAT: Loop at J=         110
 DYNMAT: Before DIRKAR
 DYNMAT: After DIRKAR
      -0.229987631093224       7.946273234169348       7.097262459430610
 DYNMAT: Loop at J=         111
 DYNMAT: Before DIRKAR
 DYNMAT: After DIRKAR
       6.389023309020775       6.776972629096345      11.386379857131422
 DYNMAT: Loop at J=         112
 DYNMAT: Before DIRKAR
 DYNMAT: After DIRKAR
       7.524432183000239       4.884498053608327      10.467522517920221
 DYNMAT: Loop at J=         113
 DYNMAT: Before DIRKAR
 DYNMAT: After DIRKAR
       8.687055268855204       5.527423701729277      10.187183062726998
 DYNMAT: Loop at J=         114
 DYNMAT: Before DIRKAR
 DYNMAT: After DIRKAR
       7.107963958417489       4.968118443254204       9.180167018534439
 HIPREC TOTAL-FORCE (eV/A)
       0.000676593069250      -0.000721801763412       0.000100899797284
       0.000890414211022      -0.000440348958563       0.001491685871642
       0.000129154478603       0.000917595788347       0.001785481651846
      -0.000089772988157      -0.000010897905811      -0.000124432371864
      -0.000169371214564      -0.000432895646126       0.000746006504210
      -0.000329502085774      -0.000003933472355       0.000486553778679
      -0.000349261082918      -0.000064305940942       0.000008620262692
      -0.000493972635941       0.000232885861858       0.000349659997979
       0.000127370222858       0.000066046494467       0.000289824041203
       0.000187772275378      -0.000185827441341       0.000314864230081
       0.000452748415265      -0.000111958780894      -0.000418865757326
       0.000228556860820      -0.000431932360368       0.000176076051089
      -0.000548159914633       0.000149670695802      -0.000554492061408
       0.000550267857775      -0.000107013464556       0.000344654606642
       0.000356406335716      -0.000362045593100       0.000338559279321
      -0.000006559567221      -0.000486476829288       0.000315468073188
       0.000028984354297      -0.000509842006907       0.000199830637495
       0.000019016892451       0.000319339818913       0.000357723065092
      -0.000280174987756      -0.000743509461164      -0.000045425161241
       0.000327943640536      -0.000331991275082       0.000466236453646
       0.000155169221755      -0.000404753082665      -0.000230708050010
       0.000262284938069      -0.000345182489164       0.000315770925970
      -0.000010626340368      -0.000247150341703       0.000601615138199
      -0.000228858309122      -0.000202035463152       0.000374392539222
       0.000207021312312      -0.000051427912161       0.000021944393723
       0.000530552042557       0.000239971878969       0.000292487398024
      -0.000255307761680      -0.000055169127735       0.000641767657558
       0.000256548622664      -0.000241344873914      -0.000077994754897
      -0.000098533615880       0.000006007775148       0.000334254651145
       0.000148645711801       0.000003645692727      -0.000116831336049
       0.000384483800622       0.000107835956208       0.000221212155990
       0.000237984538502      -0.000359586418800       0.000422033805855
       0.000591521397165       0.000227694256732       0.000243615294699
      -0.000045870305256      -0.000117954128567       0.000124876973197
       0.000721599233869       0.000101742752309       0.001071831701567
      -0.000219154389621      -0.000633416910113       0.000571016411533
       0.000208791054232       0.000144042244057       0.000074122002664
       0.000176697969142       0.000877210069590      -0.001584671395829
      -0.000203798465595      -0.001456554493417      -0.000481888999325
      -0.000341544544550      -0.000605726597081      -0.000448953331390
       0.000874448476057      -0.000620199296570      -0.001421713756433
      -0.000160522595919      -0.000245578150634      -0.000260711969935
       0.000044559290453      -0.000355654523190      -0.000385566363946
       0.000054946364562      -0.000485814498693       0.000334639369855
       0.000223273891060      -0.000054887970960       0.000295680751622
       0.000559729994484      -0.000181508520753       0.000428263654621
       0.000380865812441      -0.000124155771617       0.000490745629531
       0.000211475090149      -0.000347849957805       0.000243645807973
      -0.000421561746788      -0.000563686088342       0.000203283443057
       0.000406683310469       0.000455039235633      -0.000066857213439
       0.000534905607213       0.000136441215191      -0.000032358716171
       0.000126942758740      -0.000157770555999       0.000351854485650
       0.000092409874962      -0.000258692606179       0.000011917581433
       0.000670533895810       0.002440874249518       0.000508971605351
      -0.000039421646931      -0.000537413011126       0.000066722570750
      -0.002206740991622      -0.001107876530280       0.000097907824798
       0.002258585540853      -0.000137030746761      -0.000089647817355
       0.000143038163268      -0.000855196720833       0.000137904530217
       0.000700574309712       0.001633847704246       0.000149833915509
      -0.000114308938121       0.000123662851172      -0.000073549930042
[...]
      -0.001798029292138      -0.002199758234403       0.000459170889119
       0.000427527777966      -0.000002655712507       0.000163781927944
      -0.000196074865850      -0.000304811034125       0.000353330277230
       0.000033647120245      -0.000028208868895       0.000143746414365
      -0.000105477711627      -0.000210901160321       0.000190396840543
      -0.000024878041821      -0.000316009095679       0.000159671457961
       0.000651449376843       0.000183131707577       0.000039532396582
       0.000039755537213      -0.000026666716532       0.000319307150019
      -0.000175750695495      -0.000401049051348       0.000228125905919
       0.000254717187193       0.000789670653507       0.000103035001732
       0.000276364393341      -0.000423162622181       0.000320639391320
      -0.001504536970650       0.000645151640041      -0.000979249156980
       0.007532261989184       0.002901453090831       0.016590944574961
      -0.004211844822036       0.009125237043196      -0.011206501894135
      -0.013294663482802       0.001169489494953      -0.023741968607499
DYMAT: ------------------------------
DYMAT: DEGREE OF FREEDOM 112  1  1
DYMAT: ------------------------------
DYMAT: DEGREE OF FREEDOM 112  2  2
DYMAT: ------------------------------
DYMAT: DEGREE OF FREEDOM 112  3  3
DYMAT: ------------------------------
DYMAT: DEGREE OF FREEDOM 113  1  4
DYMAT: ------------------------------
DYMAT: DEGREE OF FREEDOM 113  2  5
DYMAT: ------------------------------
DYMAT: DEGREE OF FREEDOM 113  3  6
DYMAT: ------------------------------
DYMAT: DEGREE OF FREEDOM 114  1  7
DYMAT: ------------------------------
DYMAT: DEGREE OF FREEDOM 114  2  8
DYMAT: ------------------------------
DYMAT: DEGREE OF FREEDOM 114  3  9
DYMAT: LEAVING
 stress matrix after NEB project (eV)
    -22.25132     -0.48942      0.42039
     -0.48942    -23.78193     -1.01701
      0.42039     -1.01701    -28.03557
  FORCES: max atom, RMS     0.027236    0.003489
  FORCE total and by dimension    0.037253    0.023742
  Stress total and by dimension   43.006927   28.035566

 total charge

[...]

 magnetization (x)

# of ion       s       p       d       tot
    1        0.000   0.000   0.000   0.000
    2        0.000   0.000   0.000   0.000
    3        0.000   0.000   0.000   0.000
    4        0.000   0.000   0.000   0.000
    5        0.000   0.000   0.000   0.000
    6        0.000   0.000   0.000   0.000
    7       -0.000  -0.000   0.000  -0.000
    8       -0.000  -0.000   0.000  -0.000
    9       -0.000  -0.000   0.000  -0.000
   10       -0.000  -0.000   0.000  -0.000
   11       -0.000  -0.000   0.000  -0.000
   12       -0.000  -0.000   0.000  -0.000
   13       -0.000  -0.000   0.000  -0.000
   14       -0.000  -0.000   0.000  -0.000
   15       -0.000  -0.000   0.000  -0.000
   16       -0.000  -0.000   0.000  -0.000
   17       -0.000  -0.000   0.000  -0.000
   18       -0.000  -0.000   0.000  -0.000
   19        0.000   0.000   0.000   0.000
   20        0.000   0.000   0.000   0.000
   21        0.000   0.000   0.000   0.000
   22       -0.000  -0.000   0.000  -0.000
   23        0.000   0.000   0.000   0.000
   24        0.000   0.000   0.000   0.000
   25        0.000  -0.000   0.000  -0.000
   26        0.000   0.000   0.000   0.000
   27       -0.000   0.000   0.000  -0.000
   28        0.000   0.000   0.000   0.000
   29        0.000   0.000   0.000   0.000
   30        0.000   0.000   0.000   0.000
   31        0.000   0.000   0.000   0.000
   32        0.000   0.000   0.000   0.000
   33        0.000   0.000   0.000   0.000
   34        0.000   0.000   0.000   0.000
   35       -0.000   0.000   0.000   0.000
   36        0.000   0.000   0.000   0.000
   37        0.000  -0.000   0.000  -0.000
   38        0.000   0.000   0.000   0.000
   39        0.000   0.000   0.000   0.000
   40        0.000   0.000   0.000   0.000
   41        0.000   0.000   0.000   0.000
   42        0.000  -0.000   0.000  -0.000
   43       -0.000  -0.000   0.000  -0.000
   44        0.000   0.000   0.000   0.000
   45        0.000  -0.000   0.000  -0.000
   46        0.000  -0.000   0.000  -0.000
   47       -0.000  -0.000   0.000  -0.000
   48       -0.000  -0.000   0.000  -0.000
   49        0.000   0.000   0.000   0.000
   50       -0.000   0.000   0.000   0.000
   51       -0.000   0.000   0.000   0.000
   52        0.000   0.000   0.000   0.000
   53        0.000   0.000   0.000   0.000
   54       -0.000  -0.000   0.000  -0.000
   55       -0.000  -0.000   0.000  -0.000
   56       -0.000  -0.000   0.000  -0.000
   57        0.000   0.000   0.000   0.000
   58        0.000  -0.000   0.000  -0.000
   59       -0.000  -0.000   0.000  -0.000
   60       -0.000  -0.000   0.000  -0.000
[...]
  100       -0.000  -0.000   0.000  -0.000
  101        0.000   0.000   0.000   0.000
  102        0.000   0.000   0.000   0.000
  103       -0.000   0.000   0.000   0.000
  104        0.000   0.000   0.000   0.000
  105        0.000   0.000   0.000   0.000
  106       -0.000  -0.000   0.000  -0.000
  107        0.000   0.000   0.000   0.000
  108        0.000   0.000   0.000   0.000
  109       -0.000  -0.000  -0.000  -0.000
  110        0.000  -0.000   0.000   0.000
  111       -0.000  -0.000   0.000   0.000
  112        0.000   0.000   0.000   0.000
  113        0.000   0.000   0.000   0.000
  114       -0.000  -0.000   0.000  -0.000
tot         -0.000   0.000   0.000  -0.000