 vasp.5.4.4.18Apr17-6-g9f103f2a35 (build Dec 31 2018 11:41:54) complex

 executed on             LinuxIFC date 2022.04.26  16:30:32

 INCAR:
 POTCAR:   PAW_PBE O 08Apr2002
 POTCAR:   PAW_PBE Si 05Jan2001
 POTCAR:   PAW_PBE Al 04Jan2001
 POTCAR:   PAW_PBE Ag 06Sep2000
 POTCAR:   PAW_PBE C 08Apr2002
 POTCAR:   PAW_PBE O 08Apr2002
   VRHFIN =O: s2p4

   TITEL  = PAW_PBE O 08Apr2002
   POMASS =   16.000; ZVAL   =    6.000    mass and valenz
   ENMAX  =  400.000; ENMIN  =  300.000 eV
   QCUT   =   -5.520; QGAM   =   11.041    optimization parameters

   Description
     l     E      TYP  RCUT    TYP  RCUT
     0   .000     23  1.200
     0  -.700     23  1.200
     1   .000     23  1.520
     1   .600     23  1.520
     2   .000      7  1.500

 POTCAR:   PAW_PBE Si 05Jan2001
   VRHFIN =Si: s2p2

   TITEL  = PAW_PBE Si 05Jan2001
   POMASS =   28.085; ZVAL   =    4.000    mass and valenz
   ENMAX  =  245.345; ENMIN  =  184.009 eV
   QCUT   =   -4.246; QGAM   =    8.493    optimization parameters

[...]

 POTCAR:   PAW_PBE Al 04Jan2001
   VRHFIN =Al: s2p1

   TITEL  = PAW_PBE Al 04Jan2001
   POMASS =   26.982; ZVAL   =    3.000    mass and valenz
   ENMAX  =  240.300; ENMIN  =  180.225 eV
   QCUT   =   -4.203; QGAM   =    8.405    optimization parameters

[...]

 POTCAR:   PAW_PBE Ag 06Sep2000
   VRHFIN =Ag : s1 d10

   TITEL  = PAW_PBE Ag 06Sep2000
   POMASS =  107.868; ZVAL   =   11.000    mass and valenz
   ENMAX  =  249.846; ENMIN  =  187.385 eV
   QCUT   =   -4.285; QGAM   =    8.570    optimization parameters

[...]

 POTCAR:   PAW_PBE C 08Apr2002
   VRHFIN =C: s2p2

   TITEL  = PAW_PBE C 08Apr2002
   POMASS =   12.011; ZVAL   =    4.000    mass and valenz
   ENMAX  =  400.000; ENMIN  =  300.000 eV
   QCUT   =   -5.516; QGAM   =   11.032    optimization parameters

   Description
     l     E      TYP  RCUT    TYP  RCUT
     0   .000     23  1.200
     0   .000     23  1.200
     1   .000     23  1.500
     1  2.500     23  1.500
     2   .000      7  1.500

 Optimization of the real space projectors (new method)

 maximal supplied QI-value         = 24.76
 optimisation between [QCUT,QGAM] = [ 10.15, 20.30] = [ 28.85,115.39] Ry
 Optimized for a Real-space Cutoff    1.51 Angstroem

   l    n(q)    QCUT    max X(q) W(low)/X(q) W(high)/X(q)  e(spline)
   0      9    10.150     4.192    0.32E-04    0.13E-04    0.13E-06
   0      9    10.150     8.473    0.18E-03    0.20E-03    0.43E-06
   1      9    10.150     2.474    0.32E-04    0.33E-04    0.64E-07
   1      9    10.150     3.912    0.13E-03    0.16E-03    0.33E-06
 Optimization of the real space projectors (new method)

[...]

   l    n(q)    QCUT    max X(q) W(low)/X(q) W(high)/X(q)  e(spline)
   2      8    10.195     3.831    0.11E-04    0.20E-04    0.48E-07
   2      8    10.195    20.184    0.23E-03    0.42E-03    0.20E-06
   0      9    10.195    16.770    0.13E-04    0.90E-05    0.63E-08
   0      9    10.195    80.708    0.19E-03    0.15E-03    0.44E-07
   1      9    10.195     6.696    0.12E-04    0.45E-04    0.30E-07
   1      9    10.195     8.973    0.12E-03    0.15E-03    0.13E-06
 Optimization of the real space projectors (new method)

 maximal supplied QI-value         = 25.13
 optimisation between [QCUT,QGAM] = [ 10.05, 20.36] = [ 28.30,116.06] Ry
 Optimized for a Real-space Cutoff    1.38 Angstroem

   l    n(q)    QCUT    max X(q) W(low)/X(q) W(high)/X(q)  e(spline)
   0      8    10.053     5.582    0.33E-04    0.15E-04    0.75E-07
   0      8    10.053    69.432    0.23E-03    0.38E-03    0.25E-06
   1      8    10.053     2.780    0.76E-04    0.11E-03    0.15E-06
   1      8    10.053     4.549    0.19E-03    0.19E-03    0.27E-06
 PAW_PBE O 08Apr2002                    :
 PAW_PBE Si 05Jan2001                   :
 PAW_PBE Al 04Jan2001                   :
 PAW_PBE Ag 06Sep2000                   :
 PAW_PBE C 08Apr2002                    :

 POSCAR: O  C
  positions in direct lattice
  velocities in cartesian coordinates
 exchange correlation table for  LEXCH =        8
   RHO(1)=    0.500       N(1)  =     2000
   RHO(2)=  100.500       N(2)  =     4000

 VTST: version 3.2, (02/03/18)

 CHAIN: initializing optimizer

 OPT: Using VASP Quick-Min optimizer
 CHAIN: Read ICHAIN            1

 POSCAR: O  C
  positions in direct lattice
  velocities in cartesian coordinates
 CHAIN: Running the Dynamical Matrix

 ion  position               nearest neighbor table
   1  0.897  0.097  0.119-  75 1.63  82 1.63
   2  0.108  0.888  0.883-  81 1.62  76 1.62
   3  0.892  0.794  0.128-  85 1.62  77 1.64
   4  0.093  0.195  0.866-  78 1.63  84 1.63
   5  0.194  0.103  0.116-  79 1.63  83 1.63
   6  0.798  0.903  0.882-  80 1.59 108 1.73
   7  0.552  0.427  0.456-  86 1.62  92 1.63
   8  0.762  0.234  0.219-  91 1.59 109 1.73
   9  0.565  0.140  0.470-  96 1.64  87 1.64
  10  0.764  0.538  0.204-  95 1.63  88 1.63
  11  0.862  0.424  0.463-  94 1.63  89 1.64
  12  0.463  0.236  0.183-  90 1.63  93 1.64
  13  0.228  0.775  0.777- 104 1.61  97 1.64
  14  0.423  0.569  0.524-  98 1.66 103 1.66 112 2.55
  15  0.231  0.452  0.774- 107 1.62  99 1.62
  16  0.427  0.851  0.530- 100 1.62 110 1.79 112 2.28
  17  0.531  0.756  0.804- 101 1.63 106 1.64
  18  0.121  0.559  0.534- 105 1.65 102 1.68 112 2.46
  19  0.975  0.315  0.161-  75 1.61  91 1.63
  20  0.018  0.669  0.840- 104 1.62  76 1.63
  21  0.677  0.673  0.174-  95 1.61  77 1.63
  22  0.311  0.316  0.819- 107 1.62  78 1.63
  23  0.316  0.015  0.179-  79 1.61  93 1.63
  24  0.661  0.980  0.827- 106 1.62  80 1.63
  25  0.326  0.987  0.838-  81 1.61  97 1.63
  26  0.675  0.004  0.162-  82 1.60 109 1.74 111 2.55
  27  0.672  0.673  0.811- 101 1.61 108 1.77 113 2.40
  28  0.330  0.323  0.157-  83 1.62  90 1.62
  29  0.017  0.337  0.832-  99 1.61  84 1.62
  30  0.986  0.671  0.175-  88 1.62  85 1.62
  31  0.645  0.641  0.503- 103 1.61  86 1.62
  32  0.340  0.993  0.475-  87 1.59 110 1.71
  33  0.993  0.337  0.498- 105 1.61  89 1.63
  34  0.334  0.349  0.482-  98 1.61  92 1.63
  35  0.984  0.643  0.504- 102 1.62  94 1.62
  36  0.649  0.007  0.514- 100 1.61  96 1.64
  37  0.116  0.243  0.130-  83 1.61  75 1.62
  38  0.889  0.756  0.856-  76 1.62 108 1.77 113 2.32
  39  0.759  0.878  0.110-  82 1.60  77 1.61
  40  0.228  0.108  0.870-  78 1.61  81 1.62
  41  0.111  0.883  0.126-  79 1.61  85 1.61
  42  0.874  0.123  0.859-  84 1.61  80 1.63
  43  0.771  0.553  0.470-  86 1.61  94 1.62
  44  0.534  0.087  0.175-  93 1.62 109 1.79 111 2.31
  45  0.415  0.210  0.467-  92 1.60  87 1.64
  46  0.902  0.454  0.196-  88 1.61  91 1.63
  47  0.782  0.206  0.453-  89 1.60  96 1.63
  48  0.544  0.456  0.196-  90 1.61  95 1.62
  49  0.445  0.892  0.806- 106 1.62  97 1.64
  50  0.208  0.428  0.540-  98 1.62 105 1.62
  51  0.118  0.555  0.801-  99 1.61 104 1.62
  52  0.577  0.787  0.520- 103 1.61 100 1.64
  53  0.450  0.535  0.801- 107 1.62 101 1.63
  54  0.201  0.775  0.542- 102 1.58 110 1.74 112 2.77
  55  0.996  0.258  0.995-  84 1.62  75 1.63
  56  0.988  0.726  0.003-  76 1.62  85 1.63
  57  0.731  0.712  1.000-  77 1.60 108 1.72
  58  0.254  0.265  0.991-  78 1.63  83 1.63
  59  0.271  0.004  0.005-  81 1.63  79 1.64
  60  0.663  0.589  0.334-  86 1.61  95 1.63
  61  0.630  0.048  0.341-  96 1.60 109 1.72
  62  0.440  0.108  0.325-  93 1.61  87 1.63
  63  0.914  0.583  0.336-  94 1.62  88 1.63
  64  0.937  0.346  0.330-  89 1.62  91 1.64
  65  0.402  0.322  0.322-  92 1.62  90 1.63
  66  0.355  0.948  0.667-  97 1.59 110 1.74
  67  0.351  0.410  0.655-  98 1.62 107 1.64
  68  0.057  0.405  0.666- 105 1.62  99 1.63
  69  0.574  0.897  0.667- 106 1.61 100 1.62
  70  0.566  0.658  0.660- 103 1.61 101 1.63
  71  0.052  0.642  0.670- 102 1.64 104 1.64
  72  0.730  0.013  0.994-  80 1.66  82 1.67 111 2.49
  73  0.611  0.286  0.635- 114 1.17
  74  0.773  0.458  0.672- 114 1.19 113 2.32
  75  0.994  0.227  0.102-  19 1.61  37 1.62  55 1.63   1 1.63  83 3.10  91 3.10  82 3.12  84 3.14

  76  0.001  0.762  0.897-  38 1.62  56 1.62   2 1.62  20 1.63 104 3.06  85 3.11 108 3.18 113 3.33

[...]

 103  0.554  0.665  0.553-  70 1.61  31 1.61  52 1.61  14 1.66 100 3.04  86 3.07  98 3.10
 104  0.107  0.663  0.771-  13 1.61  51 1.62  20 1.62  71 1.64  76 3.06 102 3.08  99 3.09
 105  0.092  0.430  0.560-  33 1.61  68 1.62  50 1.62  18 1.65  89 3.03  99 3.08 102 3.14
 106  0.553  0.881  0.775-  69 1.61  49 1.62  24 1.62  17 1.64  80 3.07 101 3.09  97 3.09
 107  0.335  0.428  0.762-  22 1.62  15 1.62  53 1.62  67 1.64 101 3.07  78 3.07  98 3.11
 108  0.770  0.765  0.892-  57 1.72   6 1.73  38 1.77  27 1.77  77 3.07 113 3.09 101 3.12  76 3.18
                            80 3.24
 109  0.654  0.095  0.230-  61 1.72   8 1.73  26 1.74  44 1.79  93 3.07 111 3.10  96 3.11  82 3.16
                            91 3.24
 110  0.330  0.898  0.556-  32 1.71  66 1.74  54 1.74  16 1.79  87 3.07  97 3.13 100 3.18 112 3.23

 111  0.560  0.024  0.036-  44 2.31  72 2.49  26 2.55 109 3.10  82 3.17
 112  0.317  0.671  0.480-  16 2.28  18 2.46  14 2.55  54 2.77 110 3.23 102 3.26 100 3.34
 113  0.799  0.620  0.745-  38 2.32  74 2.32  27 2.40 108 3.09  76 3.33
 114  0.692  0.372  0.653-  73 1.17  74 1.19

  LATTYP: Found a hexagonal cell.
 ALAT       =    13.6750001907
 C/A-ratio  =     1.0798537472

  Lattice vectors:

 A1 = (  13.6750001907,   0.0000000000,   0.0000000000)
 A2 = (  -6.8375000954,  11.8428975619,   0.0000000000)
 A3 = (   0.0000000000,   0.0000000000,  14.7670001984)

Analysis of symmetry for initial positions (statically):
 Subroutine PRICEL returns:
 Original cell was already a primitive cell.

 Routine SETGRP: Setting up the symmetry group for a
 hexagonal supercell.

 Subroutine GETGRP returns: Found  1 space group operations
 (whereof  1 operations were pure point group operations)
 out of a pool of 24 trial point group operations.

The static configuration has the point symmetry C_1 .

Analysis of symmetry for dynamics (positions and initial velocities):
 Subroutine PRICEL returns:
 Original cell was already a primitive cell.

[...]

The dynamic configuration has the point symmetry C_1 .

Analysis of structural, dynamic, and magnetic symmetry:
 Subroutine PRICEL returns:
 Original cell was already a primitive cell.

 Routine SETGRP: Setting up the symmetry group for a
 hexagonal supercell.

 Subroutine GETGRP returns: Found  1 space group operations
 (whereof  1 operations were pure point group operations)
 out of a pool of 24 trial point group operations.

The magnetic configuration has the point symmetry C_1 .

 Subroutine INISYM returns: Found  1 space group operations
 (whereof  1 operations are pure point group operations),
 and found     1 'primitive' translations

 KPOINTS: Gamma points only
  k-points in reciprocal lattice
Space group operators:
 irot       det(A)        alpha          n_x          n_y          n_z        tau_x        tau_y        tau_z
    1     1.000000     0.000000     1.000000     0.000000     0.000000     0.000000     0.000000     0.000000

 SYSTEM =  zeolite
 POSCAR =  O  C

 Startparameter for this run:
   NWRITE =      2    write-flag & timer
   PREC   = acc       normal or accurate (medium, high low for compatibility)
   ISTART =      0    job   : 0-new  1-cont  2-samecut
[...]
 DYNMAT: Loop at J=          69
 DYNMAT: Before DIRKAR
 DYNMAT: After DIRKAR
       1.724189628743042      10.618965851834139       9.847237024015968
 DYNMAT: Loop at J=          70
 DYNMAT: Before DIRKAR
 DYNMAT: After DIRKAR
       3.237957801094412       7.795305144700531       9.752583063484357
 DYNMAT: Loop at J=          71
 DYNMAT: Before DIRKAR
 DYNMAT: After DIRKAR
      -3.674541213850689       7.606733314948111       9.889632396537714
 DYNMAT: Loop at J=          72
 DYNMAT: Before DIRKAR
 DYNMAT: After DIRKAR
       9.895767430398699       0.149433834614346      14.678391435132321
 DYNMAT: Loop at J=          73
 DYNMAT: Before DIRKAR
 DYNMAT: After DIRKAR
       6.400733628111968       3.390607747221260       9.380633818516589
 DYNMAT: Loop at J=          74
 DYNMAT: Before DIRKAR
 DYNMAT: After DIRKAR
       7.442597392568937       5.428438184587427       9.924290943311588
 DYNMAT: Loop at J=          75
 DYNMAT: Before DIRKAR
 DYNMAT: After DIRKAR
      12.042554089116763       2.692406176932935       1.502875257038927
 DYNMAT: Loop at J=          76
 DYNMAT: Before DIRKAR
 DYNMAT: After DIRKAR
      -5.196269928211626       9.025597259570141      13.250810154071980
 DYNMAT: Loop at J=          77
 DYNMAT: Before DIRKAR
 DYNMAT: After DIRKAR
       5.230727359189427       9.034485697214993       1.469360598012340
 DYNMAT: Loop at J=          78
 DYNMAT: Before DIRKAR
 DYNMAT: After DIRKAR
       1.505773093549750       2.616094970947290      13.107368362213027
 DYNMAT: Loop at J=          79
 DYNMAT: Before DIRKAR
 DYNMAT: After DIRKAR
       3.029653953478397       0.023574329992901       1.569540471998398
 DYNMAT: Loop at J=          80
 DYNMAT: Before DIRKAR
 DYNMAT: After DIRKAR
      10.495921183834843       0.011225980266200      13.132966941556893
 DYNMAT: Loop at J=          81
 DYNMAT: Before DIRKAR
 DYNMAT: After DIRKAR
      -3.634077543877722      11.802010674943425      13.276227598465990
 DYNMAT: Loop at J=          82
 DYNMAT: Before DIRKAR
 DYNMAT: After DIRKAR
       3.666615621215078      11.816928606120120       1.459029489968959
 DYNMAT: Loop at J=          83
 DYNMAT: Before DIRKAR
 DYNMAT: After DIRKAR
       1.465021251740221       2.758167248602101       1.449112524644136
 DYNMAT: Loop at J=          84
 DYNMAT: Before DIRKAR
 DYNMAT: After DIRKAR
      12.059185975619048       2.679420146690665      13.133216688660347
 DYNMAT: Loop at J=          85
 DYNMAT: Before DIRKAR
 DYNMAT: After DIRKAR
       8.327828517341082       9.101314956254416       1.584786179703048
 DYNMAT: Loop at J=          86
 DYNMAT: Before DIRKAR
 DYNMAT: After DIRKAR
       5.216941251402773       6.538692893180588       6.472167978882362
 DYNMAT: Loop at J=          87
 DYNMAT: Before DIRKAR
 DYNMAT: After DIRKAR
       5.249033987102193       1.291254050021148       6.425187775720514
 DYNMAT: Loop at J=          88
 DYNMAT: Before DIRKAR
 DYNMAT: After DIRKAR
       8.346756533957512       6.636611766681905       3.355643570803729
 DYNMAT: Loop at J=          89
 DYNMAT: Before DIRKAR
 DYNMAT: After DIRKAR
       9.952798591195677       3.865918465344294       6.402919212561130
 DYNMAT: Loop at J=          90
 DYNMAT: Before DIRKAR
 DYNMAT: After DIRKAR
       3.676720129980592       3.952428832353672       3.183620841106155
 DYNMAT: Loop at J=          91
 DYNMAT: Before DIRKAR
 DYNMAT: After DIRKAR
       9.882907644704504       3.947528675937400       3.338589941089380
 DYNMAT: Loop at J=          92
 DYNMAT: Before DIRKAR
 DYNMAT: After DIRKAR
       3.602227373793144       3.850413528239035       6.352679277686943
 DYNMAT: Loop at J=          93
 DYNMAT: Before DIRKAR
 DYNMAT: After DIRKAR
       5.239783524443471       1.320394351491554       3.193596303154348
 DYNMAT: Loop at J=          94
 DYNMAT: Before DIRKAR
 DYNMAT: After DIRKAR
       8.319822364638071       6.515313711963586       6.511042739179579
 DYNMAT: Loop at J=          95
 DYNMAT: Before DIRKAR
 DYNMAT: After DIRKAR
       5.211056291105479       6.678094022329743       3.340139060184348
 DYNMAT: Loop at J=          96
 DYNMAT: Before DIRKAR
 DYNMAT: After DIRKAR
       8.273258157446044       1.174588649098921       6.514522751863187
 DYNMAT: Loop at J=          97
 DYNMAT: Before DIRKAR
 DYNMAT: After DIRKAR
      -1.541040333524566      10.681504397892079      11.339833493156323
 DYNMAT: Loop at J=          98
 DYNMAT: Before DIRKAR
 DYNMAT: After DIRKAR
       1.518546593842254       5.168201789338569       8.147236329010408
 DYNMAT: Loop at J=          99
 DYNMAT: Before DIRKAR
 DYNMAT: After DIRKAR
      -1.535622451198544       5.172240905836127      11.349614984579661
 DYNMAT: Loop at J=         100
 DYNMAT: Before DIRKAR
 DYNMAT: After DIRKAR
       1.537171590908018      10.516475867871790       8.238580971680802
 DYNMAT: Loop at J=         101
 DYNMAT: Before DIRKAR
 DYNMAT: After DIRKAR
       3.103069593495851       7.774165066198142      11.374712680692197
 DYNMAT: Loop at J=         102
 DYNMAT: Before DIRKAR
 DYNMAT: After DIRKAR
      -3.263529367004582       7.801427180601070       8.319104484905125
 DYNMAT: Loop at J=         103
 DYNMAT: Before DIRKAR
 DYNMAT: After DIRKAR
       3.033018609303070       7.872712725936058       8.160057297256760
 DYNMAT: Loop at J=         104
 DYNMAT: Before DIRKAR
 DYNMAT: After DIRKAR
      -3.073075579532601       7.849190591210508      11.391962051951172
 DYNMAT: Loop at J=         105
 DYNMAT: Before DIRKAR
 DYNMAT: After DIRKAR
      -1.676422474969615       5.090863360632969       8.270286448927960
 DYNMAT: Loop at J=         106
 DYNMAT: Before DIRKAR
 DYNMAT: After DIRKAR
       1.535290725406631      10.430774260993241      11.439187042258673
 DYNMAT: Loop at J=         107
 DYNMAT: Before DIRKAR
 DYNMAT: After DIRKAR
       1.656862806975997       5.065974549018029      11.256262547621704
 DYNMAT: Loop at J=         108
 DYNMAT: Before DIRKAR
 DYNMAT: After DIRKAR
       5.302095147740443       9.065689188044086      13.167290881571105
 DYNMAT: Loop at J=         109
 DYNMAT: Before DIRKAR
 DYNMAT: After DIRKAR
       8.294507557075496       1.127543762432008       3.402381267288150
 DYNMAT: Loop at J=         110
 DYNMAT: Before DIRKAR
 DYNMAT: After DIRKAR
      -1.635975672544406      10.640723365864144       8.209586644586057
 DYNMAT: Loop at J=         111
 DYNMAT: Before DIRKAR
 DYNMAT: After DIRKAR
       7.491955073996013       0.288012906104826       0.531038895882162
 DYNMAT: Loop at J=         112
 DYNMAT: Before DIRKAR
 DYNMAT: After DIRKAR
      -0.253486712326640       7.945989684153166       7.084769031450741
 DYNMAT: Loop at J=         113
 DYNMAT: Before DIRKAR
 DYNMAT: After DIRKAR
       6.688775989307626       7.341259411104484      11.004746905439070
 DYNMAT: Loop at J=         114
 DYNMAT: Before DIRKAR
 DYNMAT: After DIRKAR
       6.914806390424341       4.403221150384652       9.645424483008563
 HIPREC TOTAL-FORCE (eV/A)
       0.000432882061365      -0.000904403852029      -0.000693887445444
       0.000851044425215       0.001102479467052       0.001007254110938
      -0.001251307442541       0.002411595659207       0.001139860882688
       0.001586499032064       0.000263118643568      -0.000938963015035
       0.000524082752613      -0.000298646732395      -0.000703908834671
       0.000775140817017       0.000003570758699      -0.001034384913867
       0.002105811649771       0.002463643163146       0.000812844527780
      -0.001515681985630      -0.000091239580256      -0.000397035982508
       0.000678528434108       0.002168188904694      -0.000136065182234
       0.000761709903320      -0.000175744969251      -0.000144394001211
      -0.000597331589954       0.001114659129575      -0.001999408888210
      -0.000644897427968       0.000004703570650      -0.000874629560976
       0.000057463433205       0.001055540516599      -0.002301124437653
      -0.001582542194720      -0.001127867822747      -0.000232155420916
       0.000217625172706       0.000859475481818       0.000093349626042
      -0.000563565755112      -0.000208240559093      -0.000622654540799
       0.001495948596515      -0.000124511799950      -0.000720529959550
       0.000957056161614       0.000819834640863       0.001231939128786
      -0.000374239424058      -0.000921740278353      -0.000943745367161
       0.001640860663232       0.000378801453632       0.000820547878175
       0.000555112501999       0.000101919650317      -0.002275724647470
       0.000495582320091       0.000483938638877       0.000239910703929
      -0.000814497653651      -0.000515420983670       0.000398809697532
       0.001135901694245       0.000955402105822      -0.000841230915070
       0.001139423581296      -0.000457174732735      -0.000674580710506
      -0.000794804991848       0.001204598952300      -0.000739554729573
       0.001287508710754       0.000205857007645      -0.000942604639314
      -0.000726194486249      -0.000033073000721       0.000227409476717
       0.000822494156671       0.000652148210127       0.000242547539044
      -0.000671489467639       0.000714222858141      -0.001383870998881
      -0.001776607515278       0.001841237238220      -0.000894273003213
       0.000560472868125      -0.001441630478905       0.001104499184252
      -0.000209938368151       0.001876311641057      -0.000258602256532
      -0.000970813720728       0.002105628993779       0.000224080843490
       0.001625384176862       0.000823651411066       0.000679612413892
      -0.000969244232717      -0.001397484660994       0.000746474761377
       0.000827099575660      -0.000445685243326      -0.000020611966780
       0.000995470209630       0.001080611559232      -0.004013818197470
      -0.001392619289265      -0.001683341226902      -0.001600090405138
       0.000578465412718       0.001418196098549       0.000248801504881
       0.002524061658885       0.003416345075227      -0.001868369583733
       0.000744109085099       0.000784064982905      -0.001378905121333
      -0.000908212225238       0.002580290890386      -0.001843515803796
      -0.000080845497597       0.000123140548635      -0.000621865086851
      -0.000014667385930       0.000498745096289      -0.000045363295099
       0.001014856901107       0.000378653306776      -0.000285346299092
       0.001391760061133       0.001120522642135      -0.000349925400255
       0.000655946240617       0.000662482514151      -0.002471964149003
      -0.000731518204242      -0.000511973984421      -0.000444134864608
      -0.000035479215312       0.000772963003247      -0.000911762820588
       0.000462125999607       0.001186223956512      -0.000807138284584
      -0.000878001633008       0.002152043852782      -0.001155964901419
       0.001240264782437       0.000737714148821      -0.001028792201049
      -0.000133016388331       0.003692377532508       0.001930165486157
       0.000688084702561      -0.000738229161772      -0.001267962561576
      -0.003363342849638       0.000577298828391      -0.001878886758536
       0.003484350942182       0.001173085771222      -0.001776673458187
      -0.000140065111779       0.000592379852798       0.000033858591481
       0.001703070087394       0.001292400864067       0.000905356219387
      -0.001317454284807      -0.000956088107434      -0.002136911129620
[...]
       0.000032913282774       0.001640430312363       0.000187736563939
       0.000178460714496       0.000735446798883       0.000727543815091
      -0.002752560555500      -0.001276406729831       0.000832614838516
       0.002680149920738       0.000017006566661       0.001695320134425
       0.000009310598564       0.000025769572052       0.000575015778556
      -0.001109668687907       0.000736172594110      -0.000614618947254
       0.000046684885458       0.000391960072752       0.001334444891247
       0.000808641915760       0.000508018971774      -0.000001678921758
       0.001004088736627       0.001099884737848      -0.001615293357667
      -0.000186312644891       0.000912566408539      -0.000129325352786
      -0.000604703263040       0.001562569155801      -0.000169441895770
      -0.000446951769791       0.000508811361833      -0.000613498731168
      -0.000331221003324       0.000144296893392      -0.000344233054703
       0.001770582709258      -0.001524946380329      -0.000701298149501
      -0.026147023828000      -0.056930265653032      -0.001930268935658
DYMAT: ------------------------------
DYMAT: DEGREE OF FREEDOM  73  1  1
DYMAT: ------------------------------
DYMAT: DEGREE OF FREEDOM  73  2  2
DYMAT: ------------------------------
DYMAT: DEGREE OF FREEDOM  73  3  3
DYMAT: ------------------------------
DYMAT: DEGREE OF FREEDOM  74  1  4
DYMAT: ------------------------------
DYMAT: DEGREE OF FREEDOM  74  2  5
DYMAT: ------------------------------
DYMAT: DEGREE OF FREEDOM  74  3  6
DYMAT: ------------------------------
DYMAT: DEGREE OF FREEDOM 114  1  7
DYMAT: ------------------------------
DYMAT: DEGREE OF FREEDOM 114  2  8
DYMAT: ------------------------------
DYMAT: DEGREE OF FREEDOM 114  3  9
DYMAT: LEAVING
 stress matrix after NEB project (eV)
    -23.34786     -0.06162      0.58106
     -0.06162    -24.62632     -0.14829
      0.58106     -0.14829    -28.05121
  FORCES: max atom, RMS     0.062677    0.007998
  FORCE total and by dimension    0.085400    0.056930
  Stress total and by dimension   44.036074   28.051214

 total charge

[...]

 magnetization (x)

# of ion       s       p       d       tot
    1        0.000  -0.000   0.000  -0.000
    2       -0.000   0.000   0.000   0.000
    3       -0.000   0.000   0.000   0.000
    4        0.000  -0.000   0.000  -0.000
    5        0.000   0.000   0.000   0.000
    6        0.000  -0.000   0.000   0.000
    7       -0.000  -0.000   0.000  -0.000
    8       -0.000   0.000   0.000   0.000
    9       -0.000   0.000   0.000   0.000
   10       -0.000  -0.000   0.000  -0.000
   11       -0.000  -0.000   0.000  -0.000
   12       -0.000   0.000   0.000   0.000
   13        0.000  -0.000   0.000   0.000
   14       -0.000  -0.000   0.000  -0.000
   15        0.000   0.000   0.000   0.000
   16        0.000  -0.000   0.000  -0.000
   17       -0.000   0.000   0.000   0.000
   18       -0.000   0.000   0.000   0.000
   19       -0.000   0.000   0.000   0.000
   20       -0.000   0.000   0.000  -0.000
   21       -0.000  -0.000   0.000  -0.000
   22       -0.000  -0.000   0.000  -0.000
   23        0.000   0.000   0.000   0.000
   24        0.000   0.000   0.000   0.000
   25       -0.000  -0.000   0.000  -0.000
   26        0.000  -0.000   0.000   0.000
   27        0.000  -0.000   0.000  -0.000
   28       -0.000   0.000   0.000   0.000
   29       -0.000  -0.000   0.000  -0.000
   30       -0.000  -0.000   0.000  -0.000
   31       -0.000  -0.000   0.000  -0.000
   32       -0.000   0.000   0.000   0.000
   33        0.000   0.000   0.000   0.000
   34        0.000  -0.000   0.000  -0.000
   35        0.000  -0.000   0.000  -0.000
   36       -0.000  -0.000   0.000  -0.000
   37        0.000   0.000   0.000   0.000
   38        0.000   0.000   0.000   0.000
   39       -0.000   0.000   0.000   0.000
   40        0.000  -0.000   0.000  -0.000
   41       -0.000  -0.000   0.000  -0.000
   42        0.000   0.000   0.000   0.000
   43        0.000   0.000   0.000   0.000
   44        0.000  -0.000   0.000  -0.000
   45        0.000  -0.000   0.000  -0.000
   46       -0.000  -0.000   0.000  -0.000
   47       -0.000   0.000   0.000   0.000
   48        0.000  -0.000   0.000  -0.000
   49       -0.000   0.000   0.000   0.000
   50        0.000  -0.000   0.000  -0.000
   51        0.000   0.000   0.000   0.000
   52       -0.000  -0.000   0.000  -0.000
   53        0.000  -0.000   0.000  -0.000
   54       -0.000   0.000   0.000   0.000
   55       -0.000   0.000   0.000   0.000
   56       -0.000  -0.000   0.000  -0.000
   57        0.000   0.000   0.000   0.000
   58        0.000  -0.000   0.000  -0.000
   59       -0.000   0.000   0.000   0.000
   60       -0.000   0.000   0.000   0.000
[...]
  100        0.000  -0.000   0.000  -0.000
  101       -0.000  -0.000   0.000  -0.000
  102        0.000   0.000   0.000   0.000
  103       -0.000  -0.000   0.000  -0.000
  104        0.000   0.000   0.000   0.000
  105        0.000  -0.000   0.000  -0.000
  106       -0.000  -0.000   0.000  -0.000
  107       -0.000  -0.000   0.000  -0.000
  108       -0.000  -0.000   0.000  -0.000
  109        0.000   0.000   0.000   0.000
  110       -0.000  -0.000   0.000  -0.000
  111       -0.000   0.000  -0.000  -0.000
  112       -0.000  -0.000  -0.000  -0.000
  113       -0.000   0.000  -0.000  -0.000
  114        0.000  -0.000   0.000  -0.000
tot          0.000  -0.000  -0.000  -0.000