 vasp.5.4.4.18Apr17-6-g9f103f2a35 (build Dec 31 2018 11:41:54) complex

 executed on             LinuxIFC date 2022.06.27  13:23:40

 INCAR:
 POTCAR:   PAW_PBE O 08Apr2002
 POTCAR:   PAW_PBE Si 05Jan2001
 POTCAR:   PAW_PBE Al 04Jan2001
 POTCAR:   PAW_PBE Ag 06Sep2000
 POTCAR:   PAW_PBE O 08Apr2002
   VRHFIN =O: s2p4

   TITEL  = PAW_PBE O 08Apr2002
   POMASS =   16.000; ZVAL   =    6.000    mass and valenz
   ENMAX  =  400.000; ENMIN  =  300.000 eV
   QCUT   =   -5.520; QGAM   =   11.041    optimization parameters

   Description
     l     E      TYP  RCUT    TYP  RCUT
     0   .000     23  1.200
     0  -.700     23  1.200
     1   .000     23  1.520
     1   .600     23  1.520
     2   .000      7  1.500

 POTCAR:   PAW_PBE Si 05Jan2001
   VRHFIN =Si: s2p2

   TITEL  = PAW_PBE Si 05Jan2001
   POMASS =   28.085; ZVAL   =    4.000    mass and valenz
   ENMAX  =  245.345; ENMIN  =  184.009 eV
   QCUT   =   -4.246; QGAM   =    8.493    optimization parameters

[...]

 POTCAR:   PAW_PBE Al 04Jan2001
   VRHFIN =Al: s2p1

   TITEL  = PAW_PBE Al 04Jan2001
   POMASS =   26.982; ZVAL   =    3.000    mass and valenz
   ENMAX  =  240.300; ENMIN  =  180.225 eV
   QCUT   =   -4.203; QGAM   =    8.405    optimization parameters

[...]

 POTCAR:   PAW_PBE Ag 06Sep2000
   VRHFIN =Ag : s1 d10

   TITEL  = PAW_PBE Ag 06Sep2000
   POMASS =  107.868; ZVAL   =   11.000    mass and valenz
   ENMAX  =  249.846; ENMIN  =  187.385 eV
   QCUT   =   -4.285; QGAM   =    8.570    optimization parameters

   Description
     l     E      TYP  RCUT    TYP  RCUT
     2   .000     23  2.400
     2   .000     23  2.400
     0   .000     23  2.400
     0   .000     23  2.400
     1  -.200     23  2.400
     1  1.500     23  2.400
     3   .000      7   .000

 Optimization of the real space projectors (new method)

 maximal supplied QI-value         = 24.76
 optimisation between [QCUT,QGAM] = [ 10.15, 20.30] = [ 28.85,115.39] Ry
 Optimized for a Real-space Cutoff    1.51 Angstroem

   l    n(q)    QCUT    max X(q) W(low)/X(q) W(high)/X(q)  e(spline)
   0      9    10.150     4.192    0.32E-04    0.13E-04    0.13E-06
   0      9    10.150     8.473    0.18E-03    0.20E-03    0.43E-06
   1      9    10.150     2.474    0.32E-04    0.33E-04    0.64E-07
   1      9    10.150     3.912    0.13E-03    0.16E-03    0.33E-06
 Optimization of the real space projectors (new method)

[...]

   l    n(q)    QCUT    max X(q) W(low)/X(q) W(high)/X(q)  e(spline)
   0      8    10.119    13.410    0.28E-04    0.17E-04    0.51E-08
   0      8    10.119   140.052    0.10E-03    0.16E-03    0.42E-07
   1      7    10.119     9.624    0.38E-04    0.42E-05    0.15E-07
   1      7    10.119    53.353    0.23E-03    0.17E-03    0.13E-06
 Optimization of the real space projectors (new method)

 maximal supplied QI-value         = 15.68
 optimisation between [QCUT,QGAM] = [ 10.20, 20.39] = [ 29.11,116.42] Ry
 Optimized for a Real-space Cutoff    1.51 Angstroem

   l    n(q)    QCUT    max X(q) W(low)/X(q) W(high)/X(q)  e(spline)
   2      8    10.195     3.831    0.11E-04    0.20E-04    0.48E-07
   2      8    10.195    20.184    0.23E-03    0.42E-03    0.20E-06
   0      9    10.195    16.770    0.13E-04    0.90E-05    0.63E-08
   0      9    10.195    80.708    0.19E-03    0.15E-03    0.44E-07
   1      9    10.195     6.696    0.12E-04    0.45E-04    0.30E-07
   1      9    10.195     8.973    0.12E-03    0.15E-03    0.13E-06
 PAW_PBE O 08Apr2002                    :
 PAW_PBE Si 05Jan2001                   :
 PAW_PBE Al 04Jan2001                   :
 PAW_PBE Ag 06Sep2000                   :

 POSCAR: O  C
  positions in direct lattice
  velocities in cartesian coordinates
 exchange correlation table for  LEXCH =        8
   RHO(1)=    0.500       N(1)  =     2000
   RHO(2)=  100.500       N(2)  =     4000

 VTST: version 3.2, (02/03/18)

 CHAIN: initializing optimizer

 OPT: Using VASP Dynamics algorithm
 CHAIN: Read ICHAIN            0

 POSCAR: O  C
  positions in direct lattice
  velocities in cartesian coordinates

 ion  position               nearest neighbor table
   1  0.896  0.100  0.119-  75 1.63  82 1.63
   2  0.104  0.889  0.877-  76 1.62  81 1.63
   3  0.892  0.790  0.125-  85 1.61  77 1.63
   4  0.092  0.195  0.867-  78 1.63  84 1.63
   5  0.194  0.102  0.115-  79 1.63  83 1.63
   6  0.800  0.906  0.881-  80 1.59 108 1.72
   7  0.558  0.424  0.460-  86 1.62  92 1.63
   8  0.763  0.228  0.217-  91 1.59 109 1.73
   9  0.565  0.141  0.471-  96 1.64  87 1.64
  10  0.766  0.543  0.215-  95 1.63  88 1.63
  11  0.861  0.425  0.463-  94 1.63  89 1.64
  12  0.465  0.235  0.183-  90 1.63  93 1.64
  13  0.227  0.774  0.779- 104 1.61  97 1.64
  14  0.425  0.570  0.527-  98 1.66 103 1.67 112 2.55
  15  0.229  0.451  0.773- 107 1.62  99 1.62
  16  0.430  0.851  0.531- 100 1.62 110 1.79 112 2.28
  17  0.530  0.756  0.805- 101 1.63 106 1.64
  18  0.123  0.558  0.531- 105 1.65 102 1.68 112 2.46
  19  0.978  0.319  0.162-  75 1.61  91 1.63
  20  0.015  0.668  0.837- 104 1.63  76 1.63
  21  0.678  0.675  0.175-  95 1.61  77 1.63
  22  0.309  0.316  0.819- 107 1.62  78 1.63
  23  0.318  0.015  0.177-  79 1.61  93 1.63
  24  0.660  0.980  0.829- 106 1.62  80 1.63
  25  0.323  0.987  0.837-  81 1.61  97 1.63
  26  0.673  0.998  0.164-  82 1.60 109 1.74 111 2.56
  27  0.666  0.670  0.819- 101 1.61 108 1.77 113 2.32
  28  0.330  0.321  0.159-  83 1.62  90 1.62
  29  0.015  0.336  0.831-  99 1.61  84 1.62
  30  0.985  0.666  0.170-  85 1.62  88 1.62
  31  0.647  0.639  0.506- 103 1.61  86 1.62
  32  0.342  0.993  0.475-  87 1.59 110 1.71
  33  0.993  0.337  0.496- 105 1.61  89 1.63
  34  0.340  0.353  0.480-  98 1.61  92 1.63
  35  0.986  0.643  0.503- 102 1.62  94 1.62
  36  0.650  0.008  0.516- 100 1.61  96 1.64
  37  0.116  0.242  0.130-  83 1.61  75 1.62
  38  0.883  0.749  0.862-  76 1.62 108 1.77 113 2.32
  39  0.767  0.881  0.112-  82 1.60  77 1.61
  40  0.227  0.108  0.871-  78 1.61  81 1.61
  41  0.111  0.881  0.131-  79 1.61  85 1.61
  42  0.872  0.124  0.862-  84 1.61  80 1.62
  43  0.777  0.563  0.452-  86 1.61  94 1.61
  44  0.534  0.084  0.175-  93 1.62 109 1.79 111 2.30
  45  0.413  0.208  0.466-  92 1.60  87 1.64
  46  0.891  0.447  0.192-  88 1.61  91 1.63
  47  0.782  0.206  0.452-  89 1.60  96 1.63
  48  0.547  0.455  0.189-  90 1.62  95 1.62
  49  0.444  0.892  0.807- 106 1.62  97 1.64
  50  0.209  0.427  0.539-  98 1.62 105 1.62
  51  0.116  0.554  0.801-  99 1.61 104 1.62
  52  0.581  0.788  0.523- 103 1.61 100 1.64
  53  0.447  0.534  0.800- 107 1.62 101 1.63
  54  0.203  0.774  0.540- 102 1.58 110 1.73 112 2.76
  55  0.998  0.261  0.996-  84 1.62  75 1.63
  56  0.997  0.730  0.002-  76 1.62  85 1.63
  57  0.727  0.712  0.001-  77 1.60 108 1.72
  58  0.254  0.266  0.992-  78 1.63  83 1.63
  59  0.264  0.997  0.003-  81 1.63  79 1.64
  60  0.642  0.584  0.334-  86 1.62  95 1.63
  61  0.628  0.047  0.343-  96 1.60 109 1.72
  62  0.440  0.107  0.325-  93 1.61  87 1.63
  63  0.931  0.583  0.333-  94 1.62  88 1.63
  64  0.935  0.348  0.329-  89 1.62  91 1.64
  65  0.412  0.327  0.322-  92 1.62  90 1.63
  66  0.353  0.946  0.666-  97 1.59 110 1.74
  67  0.349  0.407  0.655-  98 1.63 107 1.64
  68  0.058  0.406  0.664- 105 1.62  99 1.63
  69  0.575  0.898  0.668- 106 1.61 100 1.62
  70  0.569  0.659  0.663- 103 1.61 101 1.62
  71  0.055  0.642  0.668- 104 1.63 102 1.63
  72  0.729  0.011  0.996-  80 1.66  82 1.67 111 2.47
  73  0.762  0.472  0.693-  74 1.25 113 2.18
  74  0.799  0.544  0.631-  73 1.25 113 2.75
  75  0.996  0.230  0.102-  19 1.61  37 1.62   1 1.63  55 1.63  91 3.08  83 3.10  84 3.13  82 3.14

  76  0.001  0.762  0.896-  38 1.62  56 1.62   2 1.62  20 1.63 104 3.05  85 3.11 108 3.22 113 3.28

[...]

 103  0.557  0.665  0.555-  70 1.61  31 1.61  52 1.61  14 1.67 100 3.04  86 3.07  98 3.11
 104  0.106  0.662  0.770-  13 1.61  51 1.62  20 1.63  71 1.63  76 3.05  99 3.08 102 3.09
 105  0.093  0.430  0.558-  33 1.61  68 1.62  50 1.62  18 1.65  89 3.03  99 3.09 102 3.14
 106  0.552  0.881  0.776-  69 1.61  49 1.62  24 1.62  17 1.64  80 3.07  97 3.09 101 3.09
 107  0.333  0.426  0.762-  22 1.62  15 1.62  53 1.62  67 1.64  78 3.07 101 3.08  98 3.11
 108  0.769  0.768  0.894-   6 1.72  57 1.72  38 1.77  27 1.77 113 2.96  77 3.05 101 3.13  80 3.21
                            76 3.22
 109  0.653  0.091  0.232-  61 1.72   8 1.73  26 1.74  44 1.79  93 3.07 111 3.10  96 3.11  82 3.13
                            91 3.25
 110  0.331  0.898  0.555-  32 1.71  54 1.73  66 1.74  16 1.79  87 3.07  97 3.14 100 3.18 112 3.22

 111  0.559  0.021  0.037-  44 2.30  72 2.47  26 2.56 109 3.10  82 3.17
 112  0.319  0.671  0.479-  16 2.28  18 2.46  14 2.55  54 2.76 110 3.22 102 3.25 100 3.35
 113  0.760  0.568  0.810-  73 2.18  38 2.32  27 2.32  74 2.75 108 2.96  76 3.28

  LATTYP: Found a hexagonal cell.
 ALAT       =    13.6750001907
 C/A-ratio  =     1.0798537472

  Lattice vectors:

 A1 = (  13.6750001907,   0.0000000000,   0.0000000000)
 A2 = (  -6.8375000954,  11.8428975619,   0.0000000000)
 A3 = (   0.0000000000,   0.0000000000,  14.7670001984)

Analysis of symmetry for initial positions (statically):
 Subroutine PRICEL returns:
 Original cell was already a primitive cell.

 Routine SETGRP: Setting up the symmetry group for a
 hexagonal supercell.

 Subroutine GETGRP returns: Found  1 space group operations
 (whereof  1 operations were pure point group operations)
 out of a pool of 24 trial point group operations.

The static configuration has the point symmetry C_1 .

Analysis of symmetry for dynamics (positions and initial velocities):
 Subroutine PRICEL returns:
 Original cell was already a primitive cell.

[...]

The dynamic configuration has the point symmetry C_1 .

Analysis of structural, dynamic, and magnetic symmetry:
 Subroutine PRICEL returns:
 Original cell was already a primitive cell.

 Routine SETGRP: Setting up the symmetry group for a
 hexagonal supercell.

 Subroutine GETGRP returns: Found  1 space group operations
 (whereof  1 operations were pure point group operations)
 out of a pool of 24 trial point group operations.

The magnetic configuration has the point symmetry C_1 .

 Subroutine INISYM returns: Found  1 space group operations
 (whereof  1 operations are pure point group operations),
 and found     1 'primitive' translations

 KPOINTS: Gamma points only
  k-points in reciprocal lattice
Space group operators:
 irot       det(A)        alpha          n_x          n_y          n_z        tau_x        tau_y        tau_z
    1     1.000000     0.000000     1.000000     0.000000     0.000000     0.000000     0.000000     0.000000

 Subroutine IBZKPT_HF returns following result:

 Found      1 k-points in 1st BZ
 the following      1 k-points will be used (e.g. in the exchange kernel)
 Following reciprocal coordinates:   # in IRBZ
  0.000000  0.000000  0.000000    1.00000000   1 t-inv F

 SYSTEM =  SiO2
 POSCAR =  O  C

 Startparameter for this run:
   NWRITE =      2    write-flag & timer
   PREC   = acc       normal or accurate (medium, high low for compatibility)
   ISTART =      0    job   : 0-new  1-cont  2-samecut
   ICHARG =      2    charge: 1-file 2-atom 10-const
   ISPIN  =      2    spin polarized calculation?
[...]
   -.188E+02 0.452E+02 -.411E+02   0.351E+02 -.513E+02 0.437E+02   -.147E+02 0.548E+01 -.230E+01   0.298E-02 -.739E-02 -.410E-02
   0.137E+03 -.199E+03 -.132E+02   -.148E+03 0.218E+03 0.149E+02   0.103E+02 -.173E+02 -.154E+01   -.525E-03 0.728E-02 -.146E-01
   0.192E+03 0.100E+02 -.295E+02   -.214E+03 -.869E+01 0.319E+02   0.197E+02 -.117E+01 -.216E+01   -.472E-02 0.480E-02 -.456E-02
   -.242E+03 -.247E+02 -.234E+02   0.266E+03 0.260E+02 0.255E+02   -.213E+02 -.116E+01 -.184E+01   0.276E-02 -.344E-02 -.139E-01
   -.126E+03 -.216E+03 0.167E+02   0.142E+03 0.232E+03 -.109E+02   -.139E+02 -.137E+02 -.515E+01   0.177E-02 -.178E-02 0.201E-01
   0.250E+03 0.740E+02 0.234E+02   -.270E+03 -.892E+02 -.273E+02   0.173E+02 0.135E+02 0.336E+01   -.612E-03 -.235E-02 0.172E-01
   -.144E+03 0.273E+03 0.210E+02   0.155E+03 -.296E+03 -.225E+02   -.961E+01 0.200E+02 0.127E+01   0.134E-02 0.463E-02 0.189E-01
   0.158E+03 0.229E+03 0.651E+02   -.172E+03 -.245E+03 -.734E+02   0.126E+02 0.146E+02 0.727E+01   -.114E-02 0.496E-02 0.176E-01
   0.110E+03 -.266E+03 0.530E+02   -.124E+03 0.286E+03 -.509E+02   0.124E+02 -.175E+02 -.189E+01   -.227E-02 -.196E-02 0.202E-01
   -.245E+03 -.706E+02 -.425E+02   0.267E+03 0.800E+02 0.505E+02   -.187E+02 -.830E+01 -.710E+01   0.112E-02 -.184E-02 0.195E-01
   -.167E+01 -.113E+03 -.212E+03   0.149E+01 0.119E+03 0.232E+03   0.173E+00 -.534E+01 -.173E+02   0.554E-03 0.740E-02 -.160E-01
   0.330E+02 -.835E+02 0.102E+03   -.439E+02 0.836E+02 -.117E+03   0.974E+01 0.818E-01 0.130E+02   -.353E-03 -.807E-02 -.115E-01
   0.465E+02 0.405E+02 -.170E+03   -.459E+02 -.413E+02 0.178E+03   -.530E+00 0.751E+00 -.709E+01   -.242E-02 -.549E-02 -.176E-01
   -.561E+02 -.405E+02 0.182E+03   0.578E+02 0.405E+02 -.197E+03   -.150E+01 0.166E-01 0.130E+02   0.307E-02 0.361E-02 -.110E-01
   -.640E+02 0.371E+02 -.210E+03   0.661E+02 -.387E+02 0.226E+03   -.188E+01 0.141E+01 -.148E+02   0.263E-02 -.514E-02 -.167E-01
   0.804E+02 -.599E+02 0.206E+03   -.889E+02 0.640E+02 -.225E+03   0.753E+01 -.360E+01 0.167E+02   -.320E-02 0.405E-02 -.101E-01
   0.120E+02 -.142E+03 -.427E+02   -.115E+02 0.148E+03 0.527E+02   -.495E+00 -.519E+01 -.887E+01   -.365E-03 0.127E-02 0.199E-01
   -.651E+01 0.702E+02 0.683E+02   0.176E+02 -.754E+02 -.826E+02   -.992E+01 0.466E+01 0.129E+02   -.222E-03 -.679E-03 -.153E-01
   0.154E+03 0.113E+03 -.192E+03   -.163E+03 -.121E+03 0.214E+03   0.748E+01 0.724E+01 -.192E+02   -.118E-02 0.504E-02 0.183E-01
   -.778E+02 -.353E+02 0.217E+03   0.793E+02 0.344E+02 -.239E+03   -.139E+01 0.803E+00 0.194E+02   0.131E-02 0.376E-02 -.130E-01
   -.143E+03 0.102E+03 -.118E+03   0.150E+03 -.109E+03 0.128E+03   -.602E+01 0.576E+01 -.860E+01   0.912E-03 0.435E-02 0.176E-01
   0.100E+03 -.557E+02 0.204E+03   -.103E+03 0.593E+02 -.224E+03   0.279E+01 -.315E+01 0.184E+02   -.197E-02 0.326E-02 -.131E-01
   0.149E+02 -.673E+02 -.179E+03   -.173E+02 0.681E+02 0.200E+03   0.205E+01 -.665E+00 -.188E+02   -.737E-04 -.133E-02 0.119E-02
   -.675E+01 0.219E+03 0.152E+03   0.614E+01 -.223E+03 -.163E+03   0.531E+00 0.412E+01 0.955E+01   0.549E-03 0.223E-02 0.172E-01
   -.883E+01 0.234E+02 -.252E+03   0.135E+02 -.207E+02 0.273E+03   -.412E+01 -.244E+01 -.187E+02   -.239E-02 -.148E-02 0.198E-02
   -.195E+03 -.142E+03 0.213E+03   0.205E+03 0.150E+03 -.234E+03   -.852E+01 -.760E+01 0.189E+02   0.175E-02 -.567E-02 0.174E-01
   -.504E+02 0.701E+02 -.238E+03   0.552E+02 -.733E+02 0.260E+03   -.432E+01 0.278E+01 -.192E+02   0.386E-02 -.154E-02 0.163E-02
   0.153E+03 -.193E+03 0.141E+03   -.150E+03 0.207E+03 -.151E+03   -.269E+01 -.124E+02 0.913E+01   -.154E-02 -.524E-02 0.175E-01
   0.836E+02 -.200E+03 -.171E+02   -.917E+02 0.217E+03 0.177E+02   0.718E+01 -.149E+02 -.511E+00   -.203E-02 0.680E-02 -.197E-01
   -.134E+03 0.167E+03 -.504E+02   0.144E+03 -.185E+03 0.518E+02   -.856E+01 0.157E+02 -.118E+01   0.112E-02 -.694E-02 -.202E-01
   0.124E+03 0.187E+03 0.236E+01   -.131E+03 -.209E+03 -.127E+02   0.597E+01 0.198E+02 0.930E+01   -.860E-03 -.744E-02 -.206E-01
   -.879E+02 -.209E+03 -.112E+02   0.955E+02 0.229E+03 0.111E+02   -.674E+01 -.175E+02 0.135E+00   0.273E-02 0.698E-02 -.194E-01
   -.192E+03 0.808E+01 -.102E+02   0.214E+03 -.834E+01 0.116E+02   -.195E+02 0.230E+00 -.117E+01   0.263E-02 -.735E-03 -.197E-01
   0.141E+03 -.200E+03 0.360E+02   -.158E+03 0.214E+03 -.363E+02   0.149E+02 -.125E+02 0.303E+00   -.175E-02 -.234E-03 0.600E-02
[...]
   -.815E+02 -.707E+02 0.364E+02   0.788E+02 0.714E+02 -.374E+02   0.254E+01 -.659E+00 0.942E+00   0.949E-03 -.305E-02 0.120E-01
   -.102E+02 0.173E+02 -.617E+02   0.124E+02 -.169E+02 0.626E+02   -.187E+01 -.366E+00 -.725E+00   0.216E-02 -.339E-02 0.256E-02
   0.682E+02 -.699E+02 0.407E+02   -.673E+02 0.745E+02 -.414E+02   -.816E+00 -.435E+01 0.544E+00   -.161E-02 -.220E-02 0.121E-01
   -.675E+02 -.543E+02 0.536E+02   0.686E+02 0.558E+02 -.530E+02   -.972E+00 -.145E+01 -.573E+00   0.145E-02 -.236E-02 0.120E-01
   0.118E+02 0.736E+01 -.584E+02   -.115E+02 -.706E+01 0.584E+02   -.370E+00 -.309E+00 0.166E+00   -.186E-02 -.317E-02 0.281E-02
   -.128E+02 0.120E+03 0.366E+02   0.114E+02 -.120E+03 -.363E+02   0.140E+01 0.599E+00 -.309E+00   0.177E-03 0.156E-02 0.121E-01
   0.220E+01 -.539E+02 -.330E+02   -.263E+01 0.544E+02 0.326E+02   0.439E+00 -.508E+00 0.426E+00   0.130E-03 -.159E-02 0.274E-02
   -.489E+02 0.573E+02 -.454E+02   0.483E+02 -.568E+02 0.463E+02   0.648E+00 -.441E+00 -.809E+00   0.209E-02 0.154E-02 0.333E-02
   0.166E+02 -.139E+02 0.726E+01   -.167E+02 0.135E+02 -.544E+01   0.210E+00 0.318E+00 -.190E+01   0.322E-03 -.375E-02 -.679E-02
   -.167E+02 0.439E+02 -.175E+02   0.180E+02 -.435E+02 0.179E+02   -.127E+01 -.400E+00 -.342E+00   -.409E-03 -.428E-03 -.419E-02
   0.722E+02 -.592E+02 0.197E+02   -.728E+02 0.598E+02 -.203E+02   0.634E+00 -.633E+00 0.553E+00   -.476E-03 -.198E-02 0.899E-02
   0.227E+03 0.796E+02 0.198E+03   -.225E+03 -.785E+02 -.194E+03   -.144E+01 -.102E+01 -.449E+01   -.229E-02 -.482E-03 -.378E-01
   -.999E+01 0.104E+02 0.544E+03   0.958E+01 -.720E+01 -.542E+03   0.384E+00 -.302E+01 -.255E+01   0.708E-03 -.781E-02 0.220E-01
   -.465E+01 0.386E+03 -.152E+03   0.278E+01 -.381E+03 0.152E+03   0.160E+01 -.445E+01 -.218E+00   0.858E-03 -.133E-01 -.516E-02
   0.141E+01 0.138E+02 0.199E+02   -.902E-12 0.512E-12 -.227E-12   -.763E+00 -.115E+02 -.170E+02   0.949E-05 -.157E-01 -.652E-02

 POSITION                                       TOTAL-FORCE (eV/Angst)
     11.56550      1.18678      1.76457        -0.210416      0.157358     -0.203239
     -4.65887     10.52636     12.94711         0.234317     -0.053158      0.233098
      6.80384      9.35086      1.85019         0.050086     -0.235536     -0.233743
     -0.07755      2.30727     12.80614         0.012527      0.273590      0.253927
      1.94865      1.20991      1.70046         0.236657      0.123778     -0.157454
      4.74247     10.72624     13.00950        -0.381179      0.154701      0.127729
      4.72639      5.02501      6.78685        -0.211979      0.157538     -0.279118
      8.87338      2.69647      3.20783         0.310427      0.173193      0.104193
      6.76457      1.66956      6.95668         0.000413     -0.309685     -0.345660
      6.76507      6.43445      3.18017        -0.000097      0.169557      0.155134
      8.86384      5.03722      6.83148         0.194518      0.161478     -0.283261
      4.74884      2.78749      2.69690        -0.227445     -0.095441      0.345751
     -2.18878      9.17003     11.50080        -0.120675      0.031448     -0.131638
      1.91029      6.75460      7.78163         0.240594     -0.146177      0.269971
      0.05602      5.33689     11.41291        -0.016770     -0.178644     -0.118058
      0.05708     10.07597      7.83971         0.291957      0.227748      0.241924
      2.07371      8.95636     11.89241         0.113405      0.147075     -0.357087
     -2.14245      6.61406      7.84287        -0.182471     -0.131158      0.299521
     11.19848      3.77488      2.38528        -0.171252     -0.347973      0.012112
     -4.36847      7.91080     12.36305         0.211279      0.361004     -0.087502
      4.65181      7.99611      2.58658         0.427015     -0.131126     -0.080063
      2.06907      3.73989     12.09438        -0.389717      0.074132      0.058446
      4.24061      0.17696      2.61493        -0.102761      0.361423     -0.196895
      2.31627     11.60940     12.24430         0.168843     -0.337163      0.049498
     -2.32473     11.68457     12.36484        -0.222043     -0.325545     -0.017765
      2.38656     11.81609      2.42598         0.309239      0.272086     -0.243761
      4.52535      7.93135     12.09853        -0.477811      0.159627     -0.101585
      2.32455      3.79972      2.34827         0.208484     -0.345956     -0.022119
     -2.09053      3.97969     12.27470         0.390215     -0.012296     -0.047402
      8.92331      7.88578      2.50702        -0.423365     -0.031974     -0.022709
      4.47447      7.56422      7.47289        -0.249275     -0.287232     -0.098274
     -2.11155     11.75459      7.00868         0.354665      0.323640      0.015474
     11.27374      3.99494      7.32730        -0.208664      0.402608      0.014907
      2.23289      4.17690      7.09426         0.253571      0.301392      0.128699
      9.07986      7.61645      7.42486         0.216115     -0.369309     -0.027609
      8.83469      0.09270      7.61932        -0.372632     -0.136787     -0.150212
     -0.07131      2.86529      1.92229         0.010336     -0.105272     -0.342247
      6.94715      8.87404     12.72877         0.356541      0.114587      0.350296
      4.46313     10.43636      1.64824         0.007667      0.016950     -0.139558
      2.36083      1.28361     12.86853        -0.025418      0.000037      0.269175
     -4.50997     10.43762      1.93012        -0.036767      0.043599     -0.285436
     11.07852      1.47074     12.72312         0.152013     -0.046879      0.332516
      6.78363      6.66256      6.66800         0.005142     -0.108973     -0.161685
      6.72969      0.99763      2.58326        -0.279602      0.152013      0.373441
      4.22448      2.46901      6.88834         0.154130      0.147372     -0.379501
      9.13093      5.29631      2.82952        -0.042637      0.003660      0.393510
      9.28657      2.44397      6.66829        -0.121924      0.129992     -0.187434
      4.37128      5.39098      2.79229         0.067148     -0.065984      0.366718
     -0.02632     10.56482     11.91524         0.014284     -0.016992     -0.377342
     -0.06717      5.05537      7.95357         0.004878      0.113535      0.190159
     -2.20226      6.55630     11.82515        -0.068318     -0.040556     -0.382567
      2.55850      9.33111      7.71641        -0.187617     -0.166596      0.366787
      2.46044      6.32046     11.82087        -0.119402      0.017222     -0.396924
     -2.52231      9.17184      7.97793        -0.075857     -0.351158      0.196608
     11.86530      3.08533     14.70127         0.149300     -0.294482     -0.000135
      8.64737      8.64510      0.02720        -0.149423      0.320310      0.030846
      5.07377      8.43367      0.01646         0.123843      0.405896      0.311022
      1.65569      3.14567     14.65184        -0.140704     -0.354548      0.013533
     -3.20778     11.80892      0.05006        -0.392818      0.009594     -0.001468
      4.78974      6.92151      4.93018         0.284770     -0.268691      0.014411
[...]
     -1.55126      5.16487     11.32969        -0.029608     -0.006115      0.058474
      1.56281     10.52205      8.25642        -0.064459      0.035223     -0.012582
      3.07645      7.76604     11.40614         0.226568      0.041313      0.163584
     -3.23977      7.79880      8.28915         0.039910      0.100830     -0.061892
      3.06981      7.87764      8.19928         0.035260      0.041056      0.036249
     -3.08049      7.83891     11.37319        -0.048292     -0.015243      0.119032
     -1.66363      5.08859      8.24319        -0.012255     -0.020301     -0.025441
      1.51951     10.43615     11.45556         0.023794      0.004266      0.033900
      1.63882      5.04811     11.24803         0.054153      0.030750      0.064341
      5.26164      9.10105     13.20558         0.072259     -0.118395     -0.108085
      8.31113      1.07681      3.41901        -0.034188     -0.061372     -0.044907
     -1.61028     10.63098      8.19968         0.009422      0.000799     -0.030988
      7.50100      0.24938      0.54764        -0.005588     -0.022259     -0.000700
     -0.22609      7.94654      7.07203         0.000151      0.015606     -0.033935
      6.50800      6.72918     11.95886        -0.142301      0.211278      0.318869
    total drift:                               -0.001001      0.003781     -0.009102

  FREE ENERGIE OF THE ION-ELECTRON SYSTEM (eV)
  free  energy   TOTEN  =     -1188.74339951 eV

  energy  without entropy=    -1188.74339951  energy(sigma->0) =    -1188.74339951

 stress matrix after NEB project (eV)
      0.00000      0.00000      0.00000
      0.00000      0.00000      0.00000
      0.00000      0.00000      0.00000
  FORCES: max atom, RMS     2.592228    0.464315
  FORCE total and by dimension    4.935740    2.138943
  Stress total and by dimension    0.000000    0.000000

 total charge

[...]

 magnetization (x)

# of ion       s       p       d       tot
    1        0.000  -0.000   0.000  -0.000
    2       -0.000   0.000   0.000   0.000
    3        0.000   0.000   0.000   0.000
    4        0.000   0.000   0.000   0.000
    5       -0.000   0.000   0.000   0.000
    6        0.000   0.000   0.000   0.000
    7       -0.000  -0.000   0.000  -0.000
    8       -0.000  -0.000   0.000  -0.000
    9       -0.000  -0.000   0.000  -0.000
   10       -0.000  -0.000   0.000  -0.000
   11        0.000   0.000   0.000   0.000
   12       -0.000  -0.000   0.000  -0.000
   13        0.000   0.000   0.000   0.000
   14        0.000   0.000   0.000   0.000
   15       -0.000  -0.000   0.000  -0.000
   16       -0.000   0.000   0.000   0.000
   17        0.000   0.000   0.000   0.000
   18        0.000  -0.000   0.000  -0.000
   19        0.000   0.000   0.000   0.000
   20        0.000   0.001   0.000   0.001
   21        0.000   0.000   0.000   0.000
   22        0.000   0.000   0.000   0.000
   23        0.000   0.000   0.000   0.000
   24       -0.000   0.000   0.000   0.000
   25       -0.000   0.000   0.000   0.000
   26       -0.000   0.000   0.000   0.000
   27        0.000   0.002   0.000   0.002
   28       -0.000   0.000   0.000   0.000
   29       -0.000   0.000   0.000   0.000
   30        0.000  -0.000   0.000  -0.000
   31        0.000   0.000   0.000   0.000
   32       -0.000  -0.000   0.000  -0.000
   33       -0.000   0.000   0.000   0.000
   34       -0.000  -0.000   0.000  -0.000
   35        0.000   0.003   0.000   0.003
   36       -0.000  -0.000   0.000  -0.000
   37        0.000   0.000   0.000   0.000
   38       -0.000  -0.000   0.000  -0.000
   39       -0.000  -0.000   0.000  -0.000
   40       -0.000   0.000   0.000   0.000
   41        0.000   0.000   0.000   0.000
   42        0.000   0.000   0.000   0.000
   43        0.000   0.005   0.000   0.006
   44       -0.000   0.000   0.000   0.000
   45        0.000   0.000   0.000   0.000
   46       -0.000  -0.000   0.000  -0.000
   47       -0.000   0.000   0.000   0.000
   48        0.000   0.000   0.000   0.000
   49        0.000   0.000   0.000   0.000
   50       -0.000  -0.000   0.000  -0.000
   51       -0.000   0.000   0.000   0.000
   52        0.000   0.000   0.000   0.000
   53       -0.000  -0.000   0.000  -0.000
   54        0.000   0.000   0.000   0.000
   55        0.000   0.000   0.000   0.000
   56        0.000   0.000   0.000   0.000
   57        0.000  -0.000   0.000  -0.000
   58       -0.000  -0.000   0.000  -0.000
   59       -0.000  -0.000   0.000  -0.000
   60        0.000   0.000   0.000   0.000
[...]
   99       -0.000  -0.000   0.000  -0.000
  100       -0.000   0.000   0.000   0.000
  101        0.000   0.000   0.000   0.000
  102       -0.000  -0.000   0.000  -0.000
  103       -0.000  -0.000   0.000  -0.000
  104       -0.000   0.000   0.000   0.000
  105       -0.000   0.000   0.000   0.000
  106        0.000   0.000   0.000   0.000
  107       -0.000  -0.000   0.000  -0.000
  108        0.000  -0.000   0.000   0.000
  109        0.000  -0.000   0.000  -0.000
  110        0.000   0.000   0.000   0.000
  111        0.000   0.000  -0.000  -0.000
  112       -0.000  -0.000   0.000   0.000
  113        0.010   0.004   0.057   0.072
tot          0.039   1.615   0.057   1.711