 vasp.5.4.4.18Apr17-6-g9f103f2a35 (build Dec 31 2018 11:41:54) complex

 executed on             LinuxIFC date 2022.06.29  18:11:56

 INCAR:
 POTCAR:   PAW_PBE O 08Apr2002
 POTCAR:   PAW_PBE Si 05Jan2001
 POTCAR:   PAW_PBE Al 04Jan2001
 POTCAR:   PAW_PBE Ag 06Sep2000
 POTCAR:    PAW_PBE S 17Jan2003
 POTCAR:   PAW_PBE C 08Apr2002
 POTCAR:   PAW_PBE H 15Jun2001
 POTCAR:   PAW_PBE O 08Apr2002
   VRHFIN =O: s2p4

   TITEL  = PAW_PBE O 08Apr2002
   POMASS =   16.000; ZVAL   =    6.000    mass and valenz
   ENMAX  =  400.000; ENMIN  =  300.000 eV
   QCUT   =   -5.520; QGAM   =   11.041    optimization parameters

   Description
     l     E      TYP  RCUT    TYP  RCUT
     0   .000     23  1.200
     0  -.700     23  1.200
     1   .000     23  1.520
     1   .600     23  1.520
     2   .000      7  1.500

 POTCAR:   PAW_PBE Si 05Jan2001
   VRHFIN =Si: s2p2

   TITEL  = PAW_PBE Si 05Jan2001
   POMASS =   28.085; ZVAL   =    4.000    mass and valenz
   ENMAX  =  245.345; ENMIN  =  184.009 eV
   QCUT   =   -4.246; QGAM   =    8.493    optimization parameters

[...]

 POTCAR:   PAW_PBE Al 04Jan2001
   VRHFIN =Al: s2p1

[...]

 POTCAR:   PAW_PBE Ag 06Sep2000
   VRHFIN =Ag : s1 d10

   TITEL  = PAW_PBE Ag 06Sep2000
   POMASS =  107.868; ZVAL   =   11.000    mass and valenz
   ENMAX  =  249.846; ENMIN  =  187.385 eV
   QCUT   =   -4.285; QGAM   =    8.570    optimization parameters

[...]

 POTCAR:    PAW_PBE S 17Jan2003
   VRHFIN =S : s2p4

   TITEL  = PAW_PBE S 17Jan2003
   POMASS =   32.066; ZVAL   =    6.000    mass and valenz
   ENMAX  =  280.000; ENMIN  =  194.016 eV
   QCUT   =   -4.360; QGAM   =    8.721    optimization parameters

[...]

 POTCAR:   PAW_PBE C 08Apr2002
   VRHFIN =C: s2p2

   TITEL  = PAW_PBE C 08Apr2002
   POMASS =   12.011; ZVAL   =    4.000    mass and valenz
   ENMAX  =  400.000; ENMIN  =  300.000 eV
   QCUT   =   -5.516; QGAM   =   11.032    optimization parameters

[...]

 POTCAR:   PAW_PBE H 15Jun2001
   VRHFIN =H: ultrasoft test

   TITEL  = PAW_PBE H 15Jun2001
   POMASS =    1.000; ZVAL   =    1.000    mass and valenz
   ENMAX  =  250.000; ENMIN  =  200.000 eV
   QCUT   =   -5.749; QGAM   =   11.498    optimization parameters

   Description
     l     E      TYP  RCUT    TYP  RCUT
     0   .000     23  1.100
     0   .500     23  1.100
     1  -.300     23  1.100

 Optimization of the real space projectors (new method)

 maximal supplied QI-value         = 24.76
 optimisation between [QCUT,QGAM] = [ 10.15, 20.30] = [ 28.85,115.39] Ry
 Optimized for a Real-space Cutoff    1.51 Angstroem

   l    n(q)    QCUT    max X(q) W(low)/X(q) W(high)/X(q)  e(spline)
   0      9    10.150     4.192    0.32E-04    0.13E-04    0.13E-06
   0      9    10.150     8.473    0.18E-03    0.20E-03    0.43E-06
   1      9    10.150     2.474    0.32E-04    0.33E-04    0.64E-07
   1      9    10.150     3.912    0.13E-03    0.16E-03    0.33E-06
 Optimization of the real space projectors (new method)

[...]

   l    n(q)    QCUT    max X(q) W(low)/X(q) W(high)/X(q)  e(spline)
   0      8    10.053     5.582    0.33E-04    0.15E-04    0.75E-07
   0      8    10.053    69.432    0.23E-03    0.38E-03    0.25E-06
   1      8    10.053     2.780    0.76E-04    0.11E-03    0.15E-06
   1      8    10.053     4.549    0.19E-03    0.19E-03    0.27E-06
 Optimization of the real space projectors (new method)

 maximal supplied QI-value         = 34.20
 optimisation between [QCUT,QGAM] = [  9.92, 20.18] = [ 27.55,114.04] Ry
 Optimized for a Real-space Cutoff    1.34 Angstroem

   l    n(q)    QCUT    max X(q) W(low)/X(q) W(high)/X(q)  e(spline)
   0      8     9.919     4.436    0.31E-04    0.59E-04    0.66E-07
   0      8     9.919    16.131    0.16E-03    0.20E-03    0.35E-06
   1      8     9.919     4.654    0.19E-03    0.46E-03    0.40E-06
 PAW_PBE O 08Apr2002                    :
 PAW_PBE Si 05Jan2001                   :
 PAW_PBE Al 04Jan2001                   :
 PAW_PBE Ag 06Sep2000                   :
  PAW_PBE S 17Jan2003                   :
 PAW_PBE C 08Apr2002                    :
 PAW_PBE H 15Jun2001                    :

 POSCAR: O  C
  positions in direct lattice
  velocities in cartesian coordinates
 exchange correlation table for  LEXCH =        8
   RHO(1)=    0.500       N(1)  =     2000
   RHO(2)=  100.500       N(2)  =     4000

 VTST: version 3.2, (02/03/18)

 CHAIN: initializing optimizer

 OPT: Using VASP Dynamics algorithm
 CHAIN: Read ICHAIN            0

 POSCAR: O  C
  positions in direct lattice
  velocities in cartesian coordinates

 ion  position               nearest neighbor table
   1  0.898  0.099  0.120-  73 1.63  80 1.63
   2  0.111  0.892  0.880-  79 1.62  74 1.62
   3  0.894  0.794  0.126-  83 1.61  75 1.64
   4  0.095  0.199  0.864-  76 1.63  82 1.63
   5  0.196  0.105  0.116-  77 1.63  81 1.63
   6  0.810  0.913  0.888-  78 1.59 106 1.72
   7  0.559  0.429  0.455-  84 1.62  90 1.63
   8  0.762  0.232  0.219-  89 1.59 107 1.73
   9  0.569  0.145  0.472-  85 1.65  94 1.65
  10  0.769  0.544  0.217-  93 1.63  86 1.63
  11  0.859  0.426  0.454-  92 1.63  87 1.64
  12  0.463  0.235  0.184-  88 1.63  91 1.64
  13  0.240  0.777  0.798- 102 1.61  95 1.64
  14  0.427  0.572  0.525-  96 1.66 101 1.67 110 2.55
  15  0.237  0.459  0.781-  97 1.62 105 1.62
  16  0.432  0.854  0.531-  98 1.62 108 1.79 110 2.31
  17  0.524  0.756  0.803-  99 1.64 104 1.64
  18  0.124  0.560  0.542- 103 1.64 100 1.66 110 2.55
  19  0.976  0.318  0.159-  73 1.61  89 1.63
  20  0.021  0.674  0.838- 102 1.62  74 1.63
  21  0.678  0.674  0.172-  93 1.61  75 1.62
  22  0.313  0.319  0.819- 105 1.62  76 1.63
  23  0.316  0.014  0.180-  77 1.61  91 1.63
  24  0.667  0.980  0.827- 104 1.62  78 1.62
  25  0.330  0.995  0.837-  79 1.62  95 1.63
  26  0.676  0.002  0.164-  80 1.60 107 1.74 109 2.56
  27  0.673  0.685  0.816-  99 1.60 106 1.75 111 2.37
  28  0.332  0.324  0.158-  81 1.62  88 1.62
  29  0.020  0.343  0.835-  97 1.61  82 1.62
  30  0.987  0.669  0.170-  86 1.62  83 1.62
  31  0.649  0.641  0.506- 101 1.61  84 1.62
  32  0.346  0.999  0.479-  85 1.59 108 1.71
  33  0.993  0.343  0.498- 103 1.60  87 1.63
  34  0.342  0.353  0.483-  96 1.61  90 1.63
  35  0.983  0.639  0.509- 100 1.62  92 1.62
  36  0.653  0.010  0.515-  98 1.61  94 1.63
  37  0.117  0.243  0.132-  81 1.62  73 1.62
  38  0.891  0.759  0.859-  74 1.61 106 1.76 111 2.28
  39  0.762  0.880  0.111-  80 1.60  75 1.61
  40  0.229  0.111  0.872-  76 1.61  79 1.62
  41  0.112  0.884  0.127-  77 1.61  83 1.61
  42  0.875  0.129  0.860-  82 1.61  78 1.63
  43  0.779  0.566  0.449-  84 1.60  92 1.61
  44  0.534  0.085  0.176-  91 1.62 107 1.79 109 2.31
  45  0.420  0.214  0.467-  90 1.60  85 1.63
  46  0.897  0.452  0.196-  86 1.61  89 1.63
  47  0.785  0.208  0.452-  87 1.60  94 1.63
  48  0.549  0.455  0.192-  88 1.61  93 1.62
  49  0.457  0.908  0.806- 104 1.62  95 1.63
  50  0.211  0.431  0.532-  96 1.62 103 1.62
  51  0.115  0.556  0.791-  97 1.61 102 1.61
  52  0.582  0.790  0.520- 101 1.61  98 1.64
  53  0.454  0.536  0.800- 105 1.62  99 1.63
  54  0.207  0.774  0.521- 100 1.59 108 1.75 110 2.64
  55  0.000  0.259  0.996-  82 1.61  73 1.62
  56  0.995  0.730  0.002-  74 1.62  83 1.63
  57  0.731  0.713  0.000-  75 1.59 106 1.72
  58  0.253  0.267  0.992-  76 1.63  81 1.63
  59  0.272  0.004  0.005-  79 1.63  77 1.64
  60  0.645  0.591  0.333-  84 1.61  93 1.63
  61  0.630  0.049  0.342-  94 1.60 107 1.72
  62  0.441  0.109  0.326-  91 1.61  85 1.63
  63  0.938  0.593  0.334-  92 1.62  86 1.63
  64  0.940  0.345  0.328-  87 1.62  89 1.65
  65  0.408  0.326  0.322-  90 1.62  88 1.63
  66  0.340  0.932  0.667-  95 1.59 108 1.74
  67  0.347  0.412  0.655-  96 1.62 105 1.64
  68  0.067  0.397  0.665- 103 1.62  97 1.63
  69  0.580  0.900  0.667- 104 1.61  98 1.62
  70  0.570  0.662  0.662- 101 1.61  99 1.63
  71  0.082  0.678  0.668- 100 1.63 102 1.63
  72  0.732  0.016  0.996-  78 1.67  80 1.68 109 2.47
  73  0.996  0.229  0.103-  19 1.61  37 1.62  55 1.62   1 1.63  89 3.09  81 3.09  80 3.13  82 3.14

  74  0.005  0.766  0.896-  38 1.61  56 1.62   2 1.62  20 1.63 102 3.03  83 3.10 106 3.19 111 3.28

[...]

  99  0.556  0.661  0.772-  27 1.60  70 1.63  53 1.63  17 1.64 104 3.06 105 3.07 106 3.17
 100  0.099  0.666  0.560-  54 1.59  35 1.62  71 1.63  18 1.66  92 3.08 102 3.15 108 3.16 110 3.25

 101  0.559  0.668  0.554-  70 1.61  31 1.61  52 1.61  14 1.67  98 3.03  84 3.06  96 3.11
 102  0.117  0.674  0.773-  13 1.61  51 1.61  20 1.62  71 1.63  74 3.03  95 3.11 100 3.15
 103  0.097  0.431  0.560-  33 1.60  68 1.62  50 1.62  18 1.64  87 3.08  97 3.08
 104  0.556  0.885  0.775-  69 1.61  49 1.62  24 1.62  17 1.64  99 3.06  95 3.09  78 3.10
 105  0.337  0.431  0.764-  53 1.62  22 1.62  15 1.62  67 1.64  76 3.07  99 3.07
 106  0.775  0.773  0.895-  57 1.72   6 1.72  27 1.75  38 1.76 111 3.00  75 3.03  99 3.17  74 3.19
                            78 3.20
 107  0.654  0.094  0.231-  61 1.72   8 1.73  26 1.74  44 1.79  91 3.07 109 3.10  94 3.11  80 3.15
                            89 3.24
 108  0.331  0.897  0.553-  32 1.71  66 1.74  54 1.75  16 1.79  85 3.09 100 3.16  98 3.19 110 3.21
                            95 3.23
 109  0.561  0.025  0.037-  44 2.31  72 2.47  26 2.56 107 3.10  80 3.17
 110  0.322  0.673  0.476-  16 2.31  14 2.55  18 2.55  54 2.64 108 3.21 100 3.25  98 3.36
 111  0.786  0.610  0.766-  38 2.28 112 2.31  27 2.37 106 3.00  74 3.28
 112  0.766  0.487  0.651- 113 1.80 114 1.81 111 2.31
 113  0.859  0.432  0.671- 117 1.09 115 1.09 116 1.09 112 1.80
 114  0.626  0.364  0.652- 120 1.09 118 1.09 119 1.10 112 1.81
 115  0.879  0.408  0.606- 113 1.09
 116  0.824  0.361  0.718- 113 1.09
 117  0.935  0.502  0.700- 113 1.09
 118  0.626  0.296  0.692- 114 1.09
 119  0.569  0.388  0.683- 114 1.10
 120  0.601  0.336  0.582- 114 1.09

  LATTYP: Found a hexagonal cell.
 ALAT       =    13.6750001907
 C/A-ratio  =     1.0798537472

  Lattice vectors:

 A1 = (  13.6750001907,   0.0000000000,   0.0000000000)
 A2 = (  -6.8375000954,  11.8428975619,   0.0000000000)
 A3 = (   0.0000000000,   0.0000000000,  14.7670001984)

Analysis of symmetry for initial positions (statically):
 Subroutine PRICEL returns:
 Original cell was already a primitive cell.

 Routine SETGRP: Setting up the symmetry group for a
 hexagonal supercell.

 Subroutine GETGRP returns: Found  1 space group operations
 (whereof  1 operations were pure point group operations)
 out of a pool of 24 trial point group operations.

The static configuration has the point symmetry C_1 .

Analysis of symmetry for dynamics (positions and initial velocities):
 Subroutine PRICEL returns:
 Original cell was already a primitive cell.

[...]

The dynamic configuration has the point symmetry C_1 .

Analysis of structural, dynamic, and magnetic symmetry:
 Subroutine PRICEL returns:
 Original cell was already a primitive cell.

 Routine SETGRP: Setting up the symmetry group for a
 hexagonal supercell.

 Subroutine GETGRP returns: Found  1 space group operations
 (whereof  1 operations were pure point group operations)
 out of a pool of 24 trial point group operations.

The magnetic configuration has the point symmetry C_1 .

 Subroutine INISYM returns: Found  1 space group operations
[...]
   -.291E+02 0.420E+02 -.717E+02   0.460E+02 -.466E+02 0.739E+02   -.151E+02 0.416E+01 -.196E+01   -.174E-02 -.188E-02 -.330E-02
   0.133E+03 -.209E+03 -.338E+01   -.144E+03 0.229E+03 0.398E+01   0.101E+02 -.182E+02 -.526E+00   -.297E-02 0.427E-02 -.377E-02
   0.180E+03 -.325E+01 -.701E+02   -.203E+03 0.646E+01 0.749E+02   0.203E+02 -.283E+01 -.427E+01   0.804E-03 0.217E-02 -.331E-02
   -.237E+03 -.224E+02 -.147E+02   0.261E+03 0.239E+02 0.162E+02   -.211E+02 -.130E+01 -.131E+01   0.470E-02 -.105E-02 -.338E-02
   -.129E+03 -.228E+03 0.215E+02   0.146E+03 0.243E+03 -.146E+02   -.143E+02 -.133E+02 -.608E+01   -.171E-02 0.366E-03 0.708E-02
   0.256E+03 0.727E+02 0.172E+02   -.276E+03 -.862E+02 -.187E+02   0.179E+02 0.120E+02 0.136E+01   -.108E-02 -.168E-02 0.679E-02
   -.154E+03 0.264E+03 0.398E+02   0.162E+03 -.285E+03 -.399E+02   -.755E+01 0.185E+02 0.925E-01   0.364E-02 0.956E-03 0.702E-02
   0.165E+03 0.234E+03 0.664E+02   -.178E+03 -.252E+03 -.726E+02   0.120E+02 0.155E+02 0.547E+01   -.346E-02 0.108E-02 0.665E-02
   0.125E+03 -.253E+03 0.396E+02   -.140E+03 0.268E+03 -.330E+02   0.135E+02 -.129E+02 -.587E+01   0.146E-02 0.500E-03 0.719E-02
   -.251E+03 -.534E+02 -.317E+02   0.272E+03 0.626E+02 0.399E+02   -.189E+02 -.812E+01 -.720E+01   0.132E-02 -.164E-02 0.705E-02
   -.120E+01 -.113E+03 -.217E+03   0.110E+01 0.120E+03 0.238E+03   0.100E+00 -.556E+01 -.182E+02   0.381E-03 0.549E-02 -.421E-02
   0.368E+02 -.717E+02 0.705E+02   -.476E+02 0.738E+02 -.843E+02   0.966E+01 -.177E+01 0.123E+02   0.278E-03 -.111E-02 -.626E-02
   0.615E+02 0.553E+02 -.167E+03   -.634E+02 -.579E+02 0.175E+03   0.165E+01 0.221E+01 -.702E+01   -.326E-02 -.155E-02 -.523E-02
   -.473E+02 -.357E+02 0.171E+03   0.483E+02 0.348E+02 -.185E+03   -.799E+00 0.805E+00 0.129E+02   0.512E-03 0.220E-02 -.637E-02
   -.618E+02 0.413E+02 -.200E+03   0.637E+02 -.431E+02 0.214E+03   -.173E+01 0.162E+01 -.131E+02   0.344E-02 -.135E-02 -.482E-02
   0.818E+02 -.548E+02 0.195E+03   -.918E+02 0.591E+02 -.215E+03   0.885E+01 -.379E+01 0.175E+02   -.130E-03 0.218E-02 -.587E-02
   0.723E+01 -.170E+03 -.397E+02   -.678E+01 0.176E+03 0.494E+02   -.400E+00 -.506E+01 -.861E+01   -.250E-03 0.998E-03 0.791E-02
   -.782E+01 0.745E+02 0.726E+02   0.188E+02 -.799E+02 -.872E+02   -.981E+01 0.488E+01 0.130E+02   -.242E-03 -.277E-02 -.423E-02
   0.164E+03 0.123E+03 -.165E+03   -.171E+03 -.130E+03 0.187E+03   0.626E+01 0.620E+01 -.196E+02   -.287E-02 0.828E-03 0.757E-02
   -.874E+02 -.446E+02 0.217E+03   0.902E+02 0.448E+02 -.237E+03   -.248E+01 -.147E+00 0.177E+02   0.399E-02 0.137E-02 -.285E-02
   -.159E+03 0.119E+03 -.923E+02   0.166E+03 -.125E+03 0.103E+03   -.631E+01 0.580E+01 -.943E+01   0.256E-02 0.548E-03 0.744E-02
   0.920E+02 -.560E+02 0.209E+03   -.941E+02 0.590E+02 -.228E+03   0.186E+01 -.262E+01 0.171E+02   -.429E-02 0.102E-02 -.287E-02
   0.879E+01 -.100E+03 -.168E+03   -.983E+01 0.107E+03 0.188E+03   0.914E+00 -.628E+01 -.177E+02   -.268E-03 -.177E-02 -.434E-03
   -.916E+01 0.209E+03 0.181E+03   0.843E+01 -.213E+03 -.197E+03   0.664E+00 0.325E+01 0.136E+02   0.380E-03 0.838E-04 0.513E-02
   -.271E+01 0.241E+02 -.235E+03   0.338E+01 -.234E+02 0.249E+03   -.596E+00 -.631E+00 -.124E+02   0.215E-02 -.614E-03 0.228E-03
   -.193E+03 -.140E+03 0.222E+03   0.202E+03 0.148E+03 -.244E+03   -.826E+01 -.733E+01 0.196E+02   -.672E-03 -.203E-02 0.565E-02
   -.703E+02 0.716E+02 -.252E+03   0.785E+02 -.757E+02 0.273E+03   -.729E+01 0.363E+01 -.186E+02   -.194E-02 -.856E-03 -.500E-03
   0.150E+03 -.184E+03 0.198E+03   -.147E+03 0.196E+03 -.217E+03   -.320E+01 -.111E+02 0.171E+02   0.104E-02 -.196E-02 0.547E-02
   0.781E+02 -.194E+03 -.280E+02   -.854E+02 0.210E+03 0.289E+02   0.649E+01 -.140E+02 -.804E+00   0.880E-03 0.425E-02 -.749E-02
   -.117E+03 0.184E+03 -.511E+02   0.125E+03 -.204E+03 0.524E+02   -.724E+01 0.171E+02 -.109E+01   0.333E-02 -.186E-02 -.749E-02
   0.112E+03 0.208E+03 0.124E+02   -.118E+03 -.231E+03 -.233E+02   0.529E+01 0.208E+02 0.974E+01   -.285E-02 -.213E-02 -.758E-02
   -.836E+02 -.210E+03 -.197E+02   0.901E+02 0.229E+03 0.197E+02   -.570E+01 -.172E+02 0.191E-01   -.442E-03 0.426E-02 -.740E-02
   -.193E+03 0.257E+01 -.155E+02   0.216E+03 -.129E+01 0.171E+02   -.202E+02 -.113E+01 -.144E+01   0.212E-02 -.563E-03 -.746E-02
   0.147E+03 -.214E+03 0.492E+02   -.164E+03 0.230E+03 -.502E+02   0.153E+02 -.141E+02 0.837E+00   -.367E-02 0.433E-04 0.402E-02
[...]
   -.178E+02 0.437E+02 -.114E+02   0.190E+02 -.435E+02 0.117E+02   -.121E+01 -.287E+00 -.332E+00   -.187E-03 -.103E-02 -.680E-03
   0.727E+02 -.554E+02 0.178E+02   -.731E+02 0.562E+02 -.191E+02   0.403E+00 -.764E+00 0.115E+01   -.136E-03 -.113E-02 0.285E-02
   0.219E+03 0.770E+02 0.189E+03   -.217E+03 -.760E+02 -.184E+03   -.146E+01 -.953E+00 -.444E+01   -.190E-02 -.448E-02 -.131E-01
   -.130E+02 0.170E+02 0.562E+03   0.125E+02 -.136E+02 -.559E+03   0.430E+00 -.322E+01 -.252E+01   0.765E-03 -.451E-02 0.546E-02
   -.845E+01 0.160E+03 -.188E+02   0.903E+01 -.161E+03 0.174E+02   -.705E+00 0.136E+01 0.163E+01   -.524E-03 -.241E-02 -.204E-02
   0.466E+02 0.286E+02 -.372E+02   -.479E+02 -.215E+02 0.306E+02   0.125E+01 -.702E+01 0.609E+01   -.112E-04 -.940E-04 0.494E-02
   0.209E+02 0.117E+03 -.925E+02   -.172E+02 -.118E+03 0.930E+02   -.356E+01 0.166E+01 -.475E+00   0.625E-03 -.139E-04 0.300E-02
   0.315E+02 0.114E+03 -.100E+03   -.338E+02 -.118E+03 0.996E+02   0.220E+01 0.352E+01 0.792E+00   -.476E-03 0.323E-03 0.398E-02
   -.730E+01 0.389E+02 0.110E+02   0.943E+01 -.405E+02 -.159E+02   -.218E+01 0.145E+01 0.493E+01   0.269E-03 0.111E-03 0.115E-02
   0.903E+01 0.628E+02 -.524E+02   -.896E+01 -.671E+02 0.560E+02   -.163E+00 0.428E+01 -.353E+01   0.923E-04 0.955E-04 0.443E-03
   -.279E+01 -.466E+01 -.350E+02   0.571E+01 0.880E+01 0.371E+02   -.293E+01 -.426E+01 -.216E+01   0.208E-03 -.105E-03 0.471E-03
   -.132E+02 0.544E+02 -.510E+02   0.154E+02 -.585E+02 0.540E+02   -.227E+01 0.408E+01 -.294E+01   -.812E-04 0.193E-03 0.770E-03
   0.374E+02 0.162E+02 -.411E+02   -.423E+02 -.149E+02 0.433E+02   0.483E+01 -.139E+01 -.228E+01   -.153E-03 0.126E-04 0.719E-03
   0.670E+01 0.323E+02 0.110E+02   -.753E+01 -.342E+02 -.163E+02   0.859E+00 0.170E+01 0.534E+01   -.152E-03 0.207E-03 0.138E-02
   0.264E+01 0.411E+01 0.200E+02   0.409E-13 0.142E-13 -.675E-13   -.233E+01 -.186E+01 -.163E+02   0.122E-02 -.620E-02 -.678E-02

 POSITION                                       TOTAL-FORCE (eV/Angst)
     11.60025      1.16818      1.77387        -0.227954      0.176646     -0.211208
     -4.57507     10.55872     13.00129         0.155367     -0.054537      0.190300
      6.79249      9.39887      1.86274         0.039011     -0.238655     -0.252643
     -0.06430      2.35323     12.76130         0.018516      0.272766      0.268951
      1.96613      1.24220      1.71016         0.233892      0.130980     -0.177162
      4.83875     10.81326     13.11632        -0.363193      0.115021      0.068581
      4.71627      5.07793      6.72137        -0.193842      0.146355     -0.253239
      8.83886      2.74999      3.23500         0.339173      0.158149      0.082896
      6.79510      1.71162      6.96829        -0.000239     -0.312518     -0.352391
      6.78826      6.44570      3.21053        -0.004435      0.214529      0.169810
      8.84117      5.04161      6.70581         0.241077      0.160134     -0.228678
      4.72681      2.77995      2.71265        -0.213689     -0.080431      0.341139
     -2.03098      9.20294     11.77888        -0.188013      0.073558     -0.284834
      1.92666      6.77865      7.75711         0.238867     -0.128759      0.287865
      0.09958      5.43710     11.53827         0.002139     -0.210380     -0.172755
      0.07404     10.11334      7.84504         0.299901      0.218744      0.228555
      1.99237      8.95749     11.86041         0.204154      0.157779     -0.336653
     -2.13930      6.63338      8.00634        -0.141583     -0.116852      0.196333
     11.17486      3.76198      2.35025        -0.145525     -0.326904      0.030625
     -4.31260      7.97691     12.36807         0.168048      0.386260     -0.064209
      4.66130      7.98229      2.54692         0.433321     -0.098656     -0.084702
      2.09732      3.77408     12.09412        -0.389862      0.103174      0.064574
      4.22893      0.17096      2.66067        -0.090004      0.383036     -0.232638
      2.42519     11.60114     12.21164         0.144250     -0.327892      0.069389
     -2.29205     11.78781     12.35552        -0.233791     -0.372499      0.003327
      9.22398      0.02538      2.41997         0.310628      0.255584     -0.250749
      4.51568      8.11065     12.05583        -0.382150      0.090580     -0.093600
      2.32843      3.84045      2.32675         0.209322     -0.356620     -0.009929
     -2.07099      4.06088     12.33096         0.409443     -0.041696     -0.080109
      8.91784      7.92676      2.50315        -0.419806     -0.021739     -0.034721
      4.48810      7.59572      7.47319        -0.277017     -0.261419     -0.098968
     -2.10472     11.83071      7.07365         0.367567      0.292739     -0.020854
     11.24364      4.05633      7.35568        -0.158886      0.377455     -0.001577
      2.25390      4.18509      7.12800         0.250416      0.333810      0.105958
      9.08067      7.56300      7.51688         0.265478     -0.264880     -0.100889
      8.85968      0.11883      7.60968        -0.372142     -0.136273     -0.147465
     -0.06524      2.87805      1.95161         0.014854     -0.104927     -0.350005
      6.98670      8.99221     12.68585         0.295716     -0.006040      0.278920
      4.40721     10.41928      1.63440         0.061297      0.021404     -0.156050
      2.36803      1.31621     12.87899        -0.011986      0.014967      0.271270
     -4.51093     10.46784      1.88063        -0.035975      0.039004     -0.275926
     11.08443      1.52926     12.69959         0.176038     -0.059536      0.354577
      6.78508      6.70856      6.62809        -0.014141     -0.068234     -0.223449
      6.71969      1.00969      2.59345        -0.271858      0.156327      0.365777
      4.27328      2.53478      6.90234         0.134931      0.133225     -0.390956
      9.17961      5.35044      2.89529        -0.074235     -0.001012      0.348438
      9.31626      2.46462      6.67160        -0.127254      0.116284     -0.215053
      4.39925      5.38468      2.83080         0.067236     -0.037617      0.334045
      0.03279     10.75663     11.89803         0.005296     -0.102431     -0.360050
     -0.05729      5.10371      7.85322         0.023345      0.099908      0.258858
     -2.22753      6.58589     11.67502        -0.010947     -0.005480     -0.259236
      2.56370      9.35428      7.68434        -0.175854     -0.151242      0.387006
      2.55023      6.34805     11.81913        -0.142784      0.077806     -0.370054
     -2.46376      9.17017      7.68816        -0.071054     -0.304809      0.367017
     -1.76895      3.06792     14.70741         0.152711     -0.274412     -0.011280
      8.61331      8.64830      0.02365        -0.166864      0.352382     -0.011316
      5.11600      8.44390      0.00004         0.137581      0.434376      0.262737
      1.62902      3.16728     14.65063        -0.130180     -0.335281     -0.000508
      3.69066      0.05079      0.06996        -0.409537     -0.021344     -0.030965
      4.78498      7.00018      4.91021         0.272719     -0.280837      0.009629
[...]
      5.31158      9.15790     13.21466         0.046495     -0.022365     -0.055416
      8.30400      1.11490      3.41768        -0.034615     -0.054224     -0.034026
     -1.60850     10.61824      8.17030        -0.003407     -0.007547     -0.079349
      7.50005      0.29689      0.54279        -0.004955     -0.015910      0.004346
     -0.20169      7.97472      7.02753        -0.013274      0.024160     -0.042723
      6.58284      7.21852     11.31141        -0.080912      0.108646      0.082496
      7.14358      5.76483      9.60937         0.118362     -0.554797      0.010721
      8.79295      5.11777      9.91041        -0.077682     -0.018927     -0.023062
      6.07891      4.30597      9.62670         0.033380      0.005325     -0.023325
      9.22624      4.83650      8.94746        -0.139691     -0.118590      0.297951
      8.80342      4.27526     10.60734        -0.103088      0.112236     -0.067747
      9.35736      5.95057     10.33085        -0.136421     -0.305005     -0.081320
      6.54108      3.50962     10.21869        -0.115952      0.133543     -0.058500
      5.12548      4.59977     10.07943         0.168330     -0.138071     -0.123665
      5.92020      3.98202      8.59354         0.066221     -0.064915      0.265600
    total drift:                               -0.005279     -0.001701     -0.000499

  FREE ENERGIE OF THE ION-ELECTRON SYSTEM (eV)
  free  energy   TOTEN  =     -1226.56193585 eV

  energy  without entropy=    -1226.56193585  energy(sigma->0) =    -1226.56193585

 stress matrix after NEB project (eV)
      0.00000      0.00000      0.00000
      0.00000      0.00000      0.00000
      0.00000      0.00000      0.00000
  FORCES: max atom, RMS     0.567384    0.308815
  FORCE total and by dimension    3.382897    0.554797
  Stress total and by dimension    0.000000    0.000000

 total charge

[...]

 magnetization (x)

# of ion       s       p       d       tot
    1        0.000   0.000   0.000   0.000
    2       -0.000  -0.000   0.000  -0.000
    3        0.000   0.000   0.000   0.000
    4       -0.000  -0.000   0.000  -0.000
    5        0.000   0.000   0.000   0.000
    6       -0.000  -0.000   0.000  -0.000
    7        0.000  -0.000   0.000  -0.000
    8        0.000   0.000   0.000   0.000
    9       -0.000  -0.000   0.000  -0.000
   10        0.000   0.000   0.000   0.000
   11       -0.000  -0.000   0.000  -0.000
   12        0.000   0.000   0.000   0.000
   13       -0.000  -0.000   0.000  -0.000
   14       -0.000  -0.000   0.000  -0.000
   15       -0.000  -0.000   0.000  -0.000
   16       -0.000  -0.000   0.000  -0.000
   17       -0.000  -0.000   0.000  -0.000
   18        0.000  -0.000   0.000  -0.000
   19        0.000   0.000   0.000   0.000
   20       -0.000  -0.000   0.000  -0.000
   21        0.000   0.000   0.000   0.000
   22        0.000  -0.000   0.000  -0.000
   23        0.000   0.000   0.000   0.000
   24       -0.000  -0.000   0.000  -0.000
   25       -0.000  -0.000   0.000  -0.000
   26        0.000   0.000   0.000   0.000
   27       -0.000  -0.000   0.000  -0.000
   28        0.000   0.000   0.000   0.000
   29       -0.000  -0.000   0.000  -0.000
   30        0.000   0.000   0.000   0.000
   31       -0.000  -0.000   0.000  -0.000
   32       -0.000  -0.000   0.000  -0.000
   33       -0.000  -0.000   0.000  -0.000
   34       -0.000  -0.000   0.000  -0.000
   35       -0.000  -0.000   0.000  -0.000
   36       -0.000  -0.000   0.000  -0.000
   37        0.000   0.000   0.000   0.000
   38       -0.000  -0.000   0.000  -0.000
   39        0.000   0.000   0.000   0.000
   40       -0.000  -0.000   0.000  -0.000
   41        0.000   0.000   0.000   0.000
   42       -0.000  -0.000   0.000  -0.000
   43        0.000  -0.000   0.000  -0.000
   44        0.000   0.000   0.000   0.000
   45       -0.000  -0.000   0.000  -0.000
   46        0.000   0.000   0.000   0.000
   47        0.000  -0.000   0.000  -0.000
   48        0.000   0.000   0.000   0.000
   49       -0.000  -0.000   0.000  -0.000
   50        0.000  -0.000   0.000  -0.000
   51       -0.000  -0.000   0.000  -0.000
   52       -0.000  -0.000   0.000  -0.000
   53       -0.000  -0.000   0.000  -0.000
   54       -0.000  -0.000   0.000  -0.000
   55        0.000   0.000   0.000   0.000
   56        0.000   0.000   0.000   0.000
   57        0.000   0.000   0.000   0.000
   58        0.000   0.000   0.000   0.000
   59        0.000   0.000   0.000   0.000
   60        0.000   0.000   0.000   0.000
[...]
  106        0.000   0.000   0.000   0.000
  107       -0.000  -0.000   0.000  -0.000
  108        0.000   0.000   0.000   0.000
  109       -0.000  -0.000   0.000   0.000
  110       -0.000   0.000   0.000   0.000
  111        0.000   0.000  -0.000  -0.000
  112       -0.000  -0.000   0.000  -0.000
  113       -0.000  -0.000   0.000  -0.000
  114       -0.000  -0.000   0.000  -0.000
  115        0.000  -0.000   0.000   0.000
  116        0.000  -0.000   0.000   0.000
  117        0.000  -0.000   0.000   0.000
  118        0.000  -0.000   0.000   0.000
  119        0.000  -0.000   0.000   0.000
  120        0.000  -0.000   0.000   0.000
tot          0.000   0.000   0.000   0.000