 vasp.5.4.4.18Apr17-6-g9f103f2a35 (build Dec 31 2018 11:41:54) complex

 executed on             LinuxIFC date 2022.06.28  11:54:54

 INCAR:
 POTCAR:   PAW_PBE O 08Apr2002
 POTCAR:   PAW_PBE Si 05Jan2001
 POTCAR:   PAW_PBE Al 04Jan2001
 POTCAR:   PAW_PBE Ag 06Sep2000
 POTCAR:    PAW_PBE S 17Jan2003
 POTCAR:   PAW_PBE O 08Apr2002
   VRHFIN =O: s2p4

   TITEL  = PAW_PBE O 08Apr2002
   POMASS =   16.000; ZVAL   =    6.000    mass and valenz
   ENMAX  =  400.000; ENMIN  =  300.000 eV
   QCUT   =   -5.520; QGAM   =   11.041    optimization parameters

   Description
     l     E      TYP  RCUT    TYP  RCUT
     0   .000     23  1.200
     0  -.700     23  1.200
     1   .000     23  1.520
     1   .600     23  1.520
     2   .000      7  1.500

 POTCAR:   PAW_PBE Si 05Jan2001
   VRHFIN =Si: s2p2

   TITEL  = PAW_PBE Si 05Jan2001
   POMASS =   28.085; ZVAL   =    4.000    mass and valenz
   ENMAX  =  245.345; ENMIN  =  184.009 eV
   QCUT   =   -4.246; QGAM   =    8.493    optimization parameters

[...]

 POTCAR:   PAW_PBE Al 04Jan2001
   VRHFIN =Al: s2p1

[...]

 POTCAR:   PAW_PBE Ag 06Sep2000
   VRHFIN =Ag : s1 d10

   TITEL  = PAW_PBE Ag 06Sep2000
   POMASS =  107.868; ZVAL   =   11.000    mass and valenz
   ENMAX  =  249.846; ENMIN  =  187.385 eV
   QCUT   =   -4.285; QGAM   =    8.570    optimization parameters

[...]

 POTCAR:    PAW_PBE S 17Jan2003
   VRHFIN =S : s2p4

   TITEL  = PAW_PBE S 17Jan2003
   POMASS =   32.066; ZVAL   =    6.000    mass and valenz
   ENMAX  =  280.000; ENMIN  =  194.016 eV
   QCUT   =   -4.360; QGAM   =    8.721    optimization parameters

   Description
     l     E      TYP  RCUT    TYP  RCUT
     0   .000     23  1.900
     0   .000     23  1.900
     1   .000     23  1.900
     1   .000     23  1.900
     2   .000     23  1.900

 Optimization of the real space projectors (new method)

 maximal supplied QI-value         = 24.76
 optimisation between [QCUT,QGAM] = [ 10.15, 20.30] = [ 28.85,115.39] Ry
 Optimized for a Real-space Cutoff    1.51 Angstroem

   l    n(q)    QCUT    max X(q) W(low)/X(q) W(high)/X(q)  e(spline)
   0      9    10.150     4.192    0.32E-04    0.13E-04    0.13E-06
   0      9    10.150     8.473    0.18E-03    0.20E-03    0.43E-06
   1      9    10.150     2.474    0.32E-04    0.33E-04    0.64E-07
   1      9    10.150     3.912    0.13E-03    0.16E-03    0.33E-06
 Optimization of the real space projectors (new method)

[...]

   l    n(q)    QCUT    max X(q) W(low)/X(q) W(high)/X(q)  e(spline)
   2      8    10.195     3.831    0.11E-04    0.20E-04    0.48E-07
   2      8    10.195    20.184    0.23E-03    0.42E-03    0.20E-06
   0      9    10.195    16.770    0.13E-04    0.90E-05    0.63E-08
   0      9    10.195    80.708    0.19E-03    0.15E-03    0.44E-07
   1      9    10.195     6.696    0.12E-04    0.45E-04    0.30E-07
   1      9    10.195     8.973    0.12E-03    0.15E-03    0.13E-06
 Optimization of the real space projectors (new method)

 maximal supplied QI-value         = 19.84
 optimisation between [QCUT,QGAM] = [ 10.12, 20.44] = [ 28.68,116.96] Ry
 Optimized for a Real-space Cutoff    1.42 Angstroem

   l    n(q)    QCUT    max X(q) W(low)/X(q) W(high)/X(q)  e(spline)
   0      9    10.119     5.487    0.15E-04    0.47E-05    0.66E-08
   0      9    10.119    85.627    0.51E-04    0.92E-04    0.63E-07
   1      8    10.119     3.530    0.37E-05    0.76E-05    0.28E-07
   1      8    10.119    42.714    0.16E-03    0.16E-03    0.23E-06
 PAW_PBE O 08Apr2002                    :
 PAW_PBE Si 05Jan2001                   :
 PAW_PBE Al 04Jan2001                   :
 PAW_PBE Ag 06Sep2000                   :
  PAW_PBE S 17Jan2003                   :

 POSCAR: O  C
  positions in direct lattice
  velocities in cartesian coordinates
 exchange correlation table for  LEXCH =        8
   RHO(1)=    0.500       N(1)  =     2000
   RHO(2)=  100.500       N(2)  =     4000

 VTST: version 3.2, (02/03/18)

 CHAIN: initializing optimizer

 OPT: Using VASP Quick-Min optimizer
 CHAIN: Read ICHAIN            1

 POSCAR: O  C
  positions in direct lattice
  velocities in cartesian coordinates
 CHAIN: Running the Dynamical Matrix

 ion  position               nearest neighbor table
   1  0.899  0.099  0.118-  75 1.63  82 1.63
   2  0.107  0.888  0.882-  81 1.62  76 1.62
   3  0.894  0.795  0.128-  85 1.62  77 1.64
   4  0.096  0.198  0.866-  78 1.63  84 1.63
   5  0.196  0.104  0.116-  79 1.63  83 1.63
   6  0.802  0.905  0.881-  80 1.59 108 1.73
   7  0.555  0.427  0.456-  86 1.62  92 1.63
   8  0.764  0.234  0.220-  91 1.59 109 1.73
   9  0.567  0.142  0.471-  96 1.64  87 1.64
  10  0.767  0.540  0.207-  95 1.63  88 1.63
  11  0.864  0.426  0.464-  94 1.63  89 1.64
  12  0.465  0.237  0.183-  90 1.63  93 1.64
  13  0.232  0.777  0.776- 104 1.61  97 1.64
  14  0.424  0.570  0.525-  98 1.66 103 1.67 112 2.54
  15  0.231  0.449  0.772-  99 1.61 107 1.62
  16  0.429  0.852  0.531- 100 1.63 110 1.79 112 2.27
  17  0.531  0.758  0.806- 101 1.63 106 1.64
  18  0.125  0.561  0.533- 105 1.65 102 1.68 112 2.45
  19  0.978  0.317  0.162-  75 1.61  91 1.63
  20  0.022  0.670  0.841- 104 1.62  76 1.63
  21  0.679  0.674  0.174-  95 1.61  77 1.63
  22  0.314  0.317  0.819- 107 1.62  78 1.63
  23  0.319  0.016  0.178-  79 1.61  93 1.63
  24  0.664  0.981  0.827- 106 1.62  80 1.63
  25  0.326  0.988  0.838-  81 1.61  97 1.63
  26  0.678  0.005  0.163-  82 1.60 109 1.74 111 2.54
  27  0.671  0.674  0.813- 101 1.61 108 1.77 113 2.36
  28  0.333  0.324  0.158-  83 1.62  90 1.62
  29  0.017  0.338  0.832-  99 1.61  84 1.63
  30  0.988  0.671  0.174-  88 1.62  85 1.62
  31  0.647  0.641  0.505- 103 1.61  86 1.62
  32  0.343  0.994  0.475-  87 1.59 110 1.71
  33  0.995  0.338  0.499- 105 1.61  89 1.64
  34  0.337  0.351  0.482-  98 1.61  92 1.63
  35  0.987  0.643  0.505- 102 1.62  94 1.62
  36  0.650  0.008  0.515- 100 1.61  96 1.64
  37  0.118  0.244  0.130-  83 1.61  75 1.62
  38  0.888  0.752  0.855-  76 1.62 108 1.77 113 2.35
  39  0.762  0.879  0.112-  82 1.60  77 1.61
  40  0.227  0.108  0.870-  78 1.61  81 1.62
  41  0.113  0.883  0.127-  79 1.61  85 1.61
  42  0.876  0.124  0.861-  84 1.61  80 1.63
  43  0.775  0.557  0.468-  86 1.61  94 1.61
  44  0.536  0.088  0.175-  93 1.62 109 1.79 111 2.31
  45  0.415  0.210  0.468-  92 1.60  87 1.64
  46  0.902  0.454  0.195-  88 1.61  91 1.63
  47  0.785  0.207  0.452-  89 1.60  96 1.63
  48  0.547  0.457  0.196-  90 1.61  95 1.62
  49  0.449  0.896  0.807- 106 1.62  97 1.64
  50  0.209  0.427  0.543- 105 1.62  98 1.62
  51  0.123  0.557  0.802-  99 1.61 104 1.62
  52  0.579  0.788  0.520- 103 1.61 100 1.64
  53  0.450  0.536  0.801- 107 1.62 101 1.63
  54  0.203  0.777  0.545- 102 1.58 110 1.74
  55  1.000  0.261  0.995-  84 1.62  75 1.63
  56  0.990  0.728  0.003-  76 1.62  85 1.63
  57  0.734  0.714  1.000-  77 1.60 108 1.72
  58  0.256  0.266  0.992-  78 1.63  83 1.63
  59  0.271  0.004  0.004-  81 1.63  79 1.64
  60  0.662  0.591  0.335-  86 1.62  95 1.63
  61  0.631  0.049  0.342-  96 1.60 109 1.72
  62  0.442  0.110  0.325-  93 1.61  87 1.63
  63  0.920  0.584  0.336-  94 1.62  88 1.63
  64  0.940  0.348  0.331-  89 1.62  91 1.64
  65  0.405  0.323  0.323-  92 1.62  90 1.63
  66  0.359  0.951  0.667-  97 1.59 110 1.74
  67  0.355  0.410  0.655-  98 1.62 107 1.64
  68  0.057  0.409  0.666- 105 1.62  99 1.63
  69  0.576  0.897  0.667- 106 1.61 100 1.62
  70  0.567  0.660  0.662- 103 1.61 101 1.63
  71  0.055  0.639  0.671- 102 1.64 104 1.64
  72  0.731  0.012  0.994-  80 1.66  82 1.67 111 2.49
  73  0.755  0.442  0.688- 114 1.47 113 2.24
  74  0.740  0.255  0.669- 114 1.44
  75  0.997  0.229  0.102-  19 1.61  37 1.62   1 1.63  55 1.63  91 3.10  83 3.10  84 3.13  82 3.13

  76  0.002  0.761  0.897-  38 1.62  56 1.62   2 1.62  20 1.63 104 3.06  85 3.12 108 3.17
  77  0.766  0.764  0.100-  57 1.60  39 1.61  21 1.63   3 1.64  95 3.01 108 3.08  85 3.10
  78  0.222  0.222  0.888-  40 1.61  58 1.63  22 1.63   4 1.63 107 3.07  83 3.11  84 3.13
  79  0.224  0.002  0.106-  41 1.61  23 1.61   5 1.63  59 1.64  93 3.04  81 3.07
  80  0.771  0.002  0.890-   6 1.59  24 1.63  42 1.63  72 1.66 106 3.07  82 3.09  84 3.10 108 3.23

[...]

 103  0.556  0.666  0.554-  70 1.61  31 1.61  52 1.61  14 1.67 100 3.04  86 3.07  98 3.10
 104  0.111  0.664  0.772-  13 1.61  20 1.62  51 1.62  71 1.64  76 3.06  99 3.07 102 3.08
 105  0.095  0.431  0.560-  33 1.61  50 1.62  68 1.62  18 1.65  89 3.03  99 3.08 102 3.13
 106  0.555  0.883  0.775-  69 1.61  49 1.62  24 1.62  17 1.64  80 3.07 101 3.08  97 3.08
 107  0.337  0.428  0.762-  22 1.62  53 1.62  15 1.62  67 1.64  78 3.07 101 3.07  98 3.10
 108  0.773  0.767  0.892-  57 1.72   6 1.73  27 1.77  38 1.77  77 3.08 113 3.09 101 3.13  76 3.17
                            80 3.23
 109  0.656  0.096  0.231-  61 1.72   8 1.73  26 1.74  44 1.79  93 3.07 111 3.10  96 3.11  82 3.16
                            91 3.24
 110  0.332  0.900  0.556-  32 1.71  54 1.74  66 1.74  16 1.79  87 3.07  97 3.12 100 3.17 112 3.24

 111  0.560  0.022  0.037-  44 2.31  72 2.49  26 2.54 109 3.10  82 3.16
 112  0.320  0.673  0.479-  16 2.27  18 2.45  14 2.54 110 3.24 102 3.27 100 3.33
 113  0.783  0.602  0.755-  73 2.24  38 2.35  27 2.36 108 3.09
 114  0.797  0.365  0.710-  74 1.44  73 1.47

  LATTYP: Found a hexagonal cell.
 ALAT       =    13.6750001907
 C/A-ratio  =     1.0798537472

  Lattice vectors:

 A1 = (  13.6750001907,   0.0000000000,   0.0000000000)
 A2 = (  -6.8375000954,  11.8428975619,   0.0000000000)
 A3 = (   0.0000000000,   0.0000000000,  14.7670001984)

Analysis of symmetry for initial positions (statically):
 Subroutine PRICEL returns:
 Original cell was already a primitive cell.

 Routine SETGRP: Setting up the symmetry group for a
 hexagonal supercell.

 Subroutine GETGRP returns: Found  1 space group operations
 (whereof  1 operations were pure point group operations)
 out of a pool of 24 trial point group operations.

The static configuration has the point symmetry C_1 .

Analysis of symmetry for dynamics (positions and initial velocities):
 Subroutine PRICEL returns:
 Original cell was already a primitive cell.

[...]

The dynamic configuration has the point symmetry C_1 .

Analysis of structural, dynamic, and magnetic symmetry:
 Subroutine PRICEL returns:
 Original cell was already a primitive cell.

 Routine SETGRP: Setting up the symmetry group for a
 hexagonal supercell.

 Subroutine GETGRP returns: Found  1 space group operations
 (whereof  1 operations were pure point group operations)
 out of a pool of 24 trial point group operations.

The magnetic configuration has the point symmetry C_1 .

 Subroutine INISYM returns: Found  1 space group operations
 (whereof  1 operations are pure point group operations),
 and found     1 'primitive' translations

 KPOINTS: Gamma points only
  k-points in reciprocal lattice
Space group operators:
 irot       det(A)        alpha          n_x          n_y          n_z        tau_x        tau_y        tau_z
    1     1.000000     0.000000     1.000000     0.000000     0.000000     0.000000     0.000000     0.000000

 SYSTEM =  zeolite
 POSCAR =  O  C

 Startparameter for this run:
   NWRITE =      2    write-flag & timer
[...]
 DYNMAT: Loop at J=          69
 DYNMAT: Before DIRKAR
 DYNMAT: After DIRKAR
       1.735642469683822      10.625057372385088       9.852693118299495
 DYNMAT: Loop at J=          70
 DYNMAT: Before DIRKAR
 DYNMAT: After DIRKAR
       3.234225718654240       7.818892441219933       9.771588499753323
 DYNMAT: Loop at J=          71
 DYNMAT: Before DIRKAR
 DYNMAT: After DIRKAR
      -3.623071536495646       7.569960448917115       9.902583187564822
 DYNMAT: Loop at J=          72
 DYNMAT: Before DIRKAR
 DYNMAT: After DIRKAR
       9.916188547560933       0.136216632313929      14.680549186162924
 DYNMAT: Loop at J=          73
 DYNMAT: Before DIRKAR
 DYNMAT: After DIRKAR
       7.299432643743140       5.236026234994550      10.164826266926825
 DYNMAT: Loop at J=          74
 DYNMAT: Before DIRKAR
 DYNMAT: After DIRKAR
       8.369884599546850       3.021389946251190       9.882605507742541
 DYNMAT: Loop at J=          75
 DYNMAT: Before DIRKAR
 DYNMAT: After DIRKAR
      12.062650058263459       2.717280214109538       1.502499095808629
 DYNMAT: Loop at J=          76
 DYNMAT: Before DIRKAR
 DYNMAT: After DIRKAR
      -5.181565126622553       9.016060738315476      13.241717656835581
 DYNMAT: Loop at J=          77
 DYNMAT: Before DIRKAR
 DYNMAT: After DIRKAR
       5.255747587769714       9.050649303146988       1.480787159691038
 DYNMAT: Loop at J=          78
 DYNMAT: Before DIRKAR
 DYNMAT: After DIRKAR
       1.524554650534180       2.628760336257994      13.111616561780712
 DYNMAT: Loop at J=          79
 DYNMAT: Before DIRKAR
 DYNMAT: After DIRKAR
       3.047201767810103       0.029235760415549       1.570983650140532
 DYNMAT: Loop at J=          80
 DYNMAT: Before DIRKAR
 DYNMAT: After DIRKAR
      10.526437863025876       0.018950188005380      13.137273625203962
 DYNMAT: Loop at J=          81
 DYNMAT: Before DIRKAR
 DYNMAT: After DIRKAR
      -3.640193558104944      11.799173613058587      13.270499101464583
 DYNMAT: Loop at J=          82
 DYNMAT: Before DIRKAR
 DYNMAT: After DIRKAR
       3.689028345834475      11.829007633240705       1.463185342785178
 DYNMAT: Loop at J=          83
 DYNMAT: Before DIRKAR
 DYNMAT: After DIRKAR
       1.487643940502812       2.766692592268956       1.455114118111196
 DYNMAT: Loop at J=          84
 DYNMAT: Before DIRKAR
 DYNMAT: After DIRKAR
      12.074889778469771       2.705636006664482      13.139086949496130
 DYNMAT: Loop at J=          85
 DYNMAT: Before DIRKAR
 DYNMAT: After DIRKAR
       8.350953730198839       9.108094988191624       1.586883372923113
 DYNMAT: Loop at J=          86
 DYNMAT: Before DIRKAR
 DYNMAT: After DIRKAR
       5.234465875068281       6.549186471833640       6.484370843024709
 DYNMAT: Loop at J=          87
 DYNMAT: Before DIRKAR
 DYNMAT: After DIRKAR
       5.269993192279742       1.307392039993367       6.427515607873139
 DYNMAT: Loop at J=          88
 DYNMAT: Before DIRKAR
 DYNMAT: After DIRKAR
       8.372876766323923       6.649325790857233       3.370131113729604
 DYNMAT: Loop at J=          89
 DYNMAT: Before DIRKAR
 DYNMAT: After DIRKAR
       9.973294986495638       3.882466057653859       6.405457806802514
 DYNMAT: Loop at J=          90
 DYNMAT: Before DIRKAR
 DYNMAT: After DIRKAR
       3.702421934549275       3.965260638717086       3.185732139452143
 DYNMAT: Loop at J=          91
 DYNMAT: Before DIRKAR
 DYNMAT: After DIRKAR
       9.903567866469935       3.961529479712922       3.345566410994626
 DYNMAT: Loop at J=          92
 DYNMAT: Before DIRKAR
 DYNMAT: After DIRKAR
       3.629441680364135       3.863409243625906       6.355554958567579
 DYNMAT: Loop at J=          93
 DYNMAT: Before DIRKAR
 DYNMAT: After DIRKAR
       5.262552413623498       1.334185575496689       3.193870761637135
 DYNMAT: Loop at J=          94
 DYNMAT: Before DIRKAR
 DYNMAT: After DIRKAR
       8.349374857841140       6.532145724046611       6.516669491509618
 DYNMAT: Loop at J=          95
 DYNMAT: Before DIRKAR
 DYNMAT: After DIRKAR
       5.221654077306683       6.695455291748994       3.360796827386545
 DYNMAT: Loop at J=          96
 DYNMAT: Before DIRKAR
 DYNMAT: After DIRKAR
       8.288027494783103       1.193438861486974       6.524098762326664
 DYNMAT: Loop at J=          97
 DYNMAT: Before DIRKAR
 DYNMAT: After DIRKAR
      -1.519682557531493      10.709913195653394      11.336743668619203
 DYNMAT: Loop at J=          98
 DYNMAT: Before DIRKAR
 DYNMAT: After DIRKAR
       1.550389392721006       5.176997599771648       8.158441281852175
 DYNMAT: Loop at J=          99
 DYNMAT: Before DIRKAR
 DYNMAT: After DIRKAR
      -1.511305492342129       5.184920789103602      11.347647185819090
 DYNMAT: Loop at J=         100
 DYNMAT: Before DIRKAR
 DYNMAT: After DIRKAR
       1.556855399329487      10.529554712694434       8.242421717850256
 DYNMAT: Loop at J=         101
 DYNMAT: Before DIRKAR
 DYNMAT: After DIRKAR
       3.095826966058641       7.791112741077763      11.391666100066471
 DYNMAT: Loop at J=         102
 DYNMAT: Before DIRKAR
 DYNMAT: After DIRKAR
      -3.230436884700713       7.810986997827894       8.330407109806597
 DYNMAT: Loop at J=         103
 DYNMAT: Before DIRKAR
 DYNMAT: After DIRKAR
       3.049245049639952       7.885115734154216       8.176084987341948
 DYNMAT: Loop at J=         104
 DYNMAT: Before DIRKAR
 DYNMAT: After DIRKAR
      -3.025662851002710       7.860578963280190      11.400198356384482
 DYNMAT: Loop at J=         105
 DYNMAT: Before DIRKAR
 DYNMAT: After DIRKAR
      -1.652124650354981       5.109917815314446       8.271397493119487
 DYNMAT: Loop at J=         106
 DYNMAT: Before DIRKAR
 DYNMAT: After DIRKAR
       1.549554623067209      10.452446825108257      11.445513387623711
 DYNMAT: Loop at J=         107
 DYNMAT: Before DIRKAR
 DYNMAT: After DIRKAR
       1.691303398725252       5.063544615302958      11.253190996781791
 DYNMAT: Loop at J=         108
 DYNMAT: Before DIRKAR
 DYNMAT: After DIRKAR
       5.329397039107308       9.080060610404873      13.168522048344922
 DYNMAT: Loop at J=         109
 DYNMAT: Before DIRKAR
 DYNMAT: After DIRKAR
       8.316166937477082       1.135967565436572       3.413905436835332
 DYNMAT: Loop at J=         110
 DYNMAT: Before DIRKAR
 DYNMAT: After DIRKAR
      -1.611577907044534      10.660036712979402       8.214794633328282
 DYNMAT: Loop at J=         111
 DYNMAT: Before DIRKAR
 DYNMAT: After DIRKAR
       7.509703074988973       0.265327073882061       0.548325196697099
 DYNMAT: Loop at J=         112
 DYNMAT: Before DIRKAR
 DYNMAT: After DIRKAR
      -0.219155833450901       7.964847518917248       7.074511657099742
 DYNMAT: Loop at J=         113
 DYNMAT: Before DIRKAR
 DYNMAT: After DIRKAR
       6.596624918607334       7.125081604756637      11.142313498969060
 DYNMAT: Loop at J=         114
 DYNMAT: Before DIRKAR
 DYNMAT: After DIRKAR
       8.408761006192648       4.324080667051845      10.488951259001698
 HIPREC TOTAL-FORCE (eV/A)
       0.000918700928623       0.000508038776396      -0.000373494479022
       0.000909057333027       0.000913789319500       0.000956676569668
       0.000484775418179       0.000727847169829       0.000489781758189
      -0.000599538286409       0.000502209277265      -0.000685301130295
      -0.000224626395067       0.001504425538172       0.000163217190618
       0.000773964438395       0.000345805320238      -0.001604419177639
      -0.000577558436994       0.000479974118649      -0.003048462600905
       0.000077350693681       0.002326432362571      -0.001438358397321
      -0.000647151601525      -0.000216565846049      -0.000132572666468
      -0.000412938345651       0.000104557604105      -0.001476421068406
       0.000234967149240       0.001095124342128       0.000492173542722
      -0.000240191337974       0.000486976009429       0.000044862333078
       0.000320192965631       0.000302069588391       0.000016765633133
      -0.000015229814862       0.000096231344169       0.000011508071723
       0.000404335592193      -0.000265344821907      -0.000964717565341
       0.000579460274126       0.001077634705681      -0.000870203929436
       0.000921639525788       0.000943968164025      -0.000172844202422
       0.000732068014326      -0.000825884114923       0.001087426670168
       0.000134930545959       0.000157276741245       0.000169620268325
       0.001060021129761      -0.000090346626648       0.000805405002504
       0.000231812733438      -0.000537168326754      -0.001716576810205
       0.000176310719926       0.000987210105199      -0.000453409324038
       0.000253002207723       0.000090447365355       0.000582290831202
       0.000067879177814       0.000749260756320      -0.000887030198442
       0.000013221439322       0.000561899151506       0.000372327593789
       0.000178036912533       0.000899673193232      -0.001069964353625
       0.001612925789410      -0.000204540391479       0.000029088658355
       0.000624629067663       0.001069799477461      -0.000989398504342
       0.000008639886266       0.000838738218342       0.000198307117870
      -0.000065317756160       0.001688140959887      -0.000073050472953
      -0.000339116960602       0.000545018974394      -0.000404067262375
      -0.000513705149725       0.002056327443871      -0.000271999949990
       0.001315979921699       0.000475352699993      -0.000725376660450
       0.000318818908656       0.000617679083247      -0.000138393801058
       0.001985168820145       0.001722593949289       0.000536871307756
       0.000583758365257       0.000673128872111      -0.000847532507789
       0.000785011554816       0.000464804717086       0.000013946340797
       0.000515523535119      -0.000058430812491      -0.001308138255653
       0.000415558697508      -0.001401804864260      -0.000009030065498
       0.000395838748557       0.000051259951714      -0.000560132446200
       0.000293803120062       0.001025772563184      -0.001118502247848
       0.001145888362113       0.002222905756741      -0.000522569078234
       0.000644464637469       0.000082293183899       0.000802625867105
       0.000096439291099      -0.000036143969668      -0.000120315909586
       0.000391942776601       0.001853961728140      -0.000030643770558
       0.001148033596509       0.000840652680286      -0.000866515266083
      -0.000294773750720       0.000616931836504       0.001215998393271
       0.000692523164628       0.000443638233495       0.002081489548869
       0.001172867009332       0.000151409767146       0.000104835257687
       0.000672276085663       0.000474235955056       0.000370155139445
       0.000619795986592      -0.000359334161887      -0.001393821817712
      -0.000164768787856       0.000698408905877      -0.000253963764301
      -0.000669811898407      -0.000052163855119      -0.000391281156405
       0.004082811134413       0.007121402865025      -0.000918881988867
       0.000570743354201       0.000131938924974      -0.001603425742872
      -0.000958311036925      -0.000137209793826       0.001409031628914
       0.001463057110464       0.001411651137165      -0.000883902635095
      -0.000072090041171       0.000012193670646      -0.001260675831174
       0.000732329269681       0.001422732132904      -0.001025931865897
       0.002428524577409       0.002869285695229      -0.001442476841621
[...]
       0.000037080703395       0.000092973164280      -0.000182690306999
       0.000201103159323       0.000585512865885      -0.000337430748353
      -0.004167353418978      -0.004859139230156       0.000116495156166
       0.000612290581730       0.000504314474418      -0.000045205907182
       0.000098710162262       0.001245652807518      -0.000889913452766
      -0.000456311439876       0.001675720072041      -0.000760035644362
       0.000151817902509       0.000312344044304      -0.000062431613240
       0.000604831015211       0.000620166481490       0.000276953586869
       0.000538172758029       0.000616837392376      -0.001362807500752
       0.000057197348074       0.000710878184753      -0.001236300199102
      -0.000664929790230      -0.001315114834985       0.000012900479211
      -0.000142415508596      -0.000650277854388       0.000010473721702
      -0.000086174748649       0.000413688139310       0.000650812727567
       0.003023223220994      -0.005458767196428       0.005371552306700
      -0.016441802328833      -0.033416739541459      -0.015550647448663
DYMAT: ------------------------------
DYMAT: DEGREE OF FREEDOM  73  1  1
DYMAT: ------------------------------
DYMAT: DEGREE OF FREEDOM  73  2  2
DYMAT: ------------------------------
DYMAT: DEGREE OF FREEDOM  73  3  3
DYMAT: ------------------------------
DYMAT: DEGREE OF FREEDOM  74  1  4
DYMAT: ------------------------------
DYMAT: DEGREE OF FREEDOM  74  2  5
DYMAT: ------------------------------
DYMAT: DEGREE OF FREEDOM  74  3  6
DYMAT: ------------------------------
DYMAT: DEGREE OF FREEDOM 114  1  7
DYMAT: ------------------------------
DYMAT: DEGREE OF FREEDOM 114  2  8
DYMAT: ------------------------------
DYMAT: DEGREE OF FREEDOM 114  3  9
DYMAT: LEAVING
 stress matrix after NEB project (eV)
    -23.89896     -0.48847      0.28439
     -0.48847    -25.32462     -0.70802
      0.28439     -0.70802    -29.04102
  FORCES: max atom, RMS     0.040359    0.005385
  FORCE total and by dimension    0.057493    0.033417
  Stress total and by dimension   45.359886   29.041020

 total charge

[...]

 magnetization (x)

# of ion       s       p       d       tot
    1       -0.000   0.000   0.000   0.000
    2       -0.000  -0.000   0.000  -0.000
    3       -0.000   0.000   0.000   0.000
    4        0.000  -0.000   0.000  -0.000
    5       -0.000   0.000   0.000   0.000
    6        0.000   0.000   0.000   0.000
    7        0.000  -0.000   0.000  -0.000
    8        0.000  -0.000   0.000  -0.000
    9       -0.000  -0.000   0.000  -0.000
   10       -0.000  -0.000   0.000  -0.000
   11        0.000  -0.000   0.000  -0.000
   12        0.000  -0.000   0.000  -0.000
   13        0.000  -0.000   0.000  -0.000
   14        0.000  -0.000   0.000  -0.000
   15        0.000  -0.000   0.000  -0.000
   16        0.000  -0.000   0.000  -0.000
   17        0.000  -0.000   0.000  -0.000
   18       -0.000  -0.000   0.000  -0.000
   19        0.000   0.000   0.000   0.000
   20        0.000   0.000   0.000   0.000
   21       -0.000  -0.000   0.000  -0.000
   22        0.000  -0.000   0.000  -0.000
   23       -0.000  -0.000   0.000  -0.000
   24        0.000  -0.000   0.000  -0.000
   25        0.000  -0.000   0.000  -0.000
   26       -0.000  -0.000   0.000  -0.000
   27        0.000   0.000   0.000   0.000
   28       -0.000   0.000   0.000   0.000
   29       -0.000  -0.000   0.000  -0.000
   30        0.000   0.000   0.000   0.000
   31        0.000  -0.000   0.000   0.000
   32        0.000  -0.000   0.000  -0.000
   33       -0.000  -0.000   0.000  -0.000
   34        0.000  -0.000   0.000  -0.000
   35        0.000  -0.000   0.000  -0.000
   36        0.000  -0.000   0.000  -0.000
   37       -0.000  -0.000   0.000  -0.000
   38       -0.000  -0.000   0.000  -0.000
   39       -0.000   0.000   0.000   0.000
   40        0.000   0.000   0.000   0.000
   41        0.000  -0.000   0.000  -0.000
   42       -0.000  -0.000   0.000  -0.000
   43        0.000  -0.000   0.000  -0.000
   44       -0.000   0.000   0.000  -0.000
   45        0.000  -0.000   0.000  -0.000
   46        0.000   0.000   0.000   0.000
   47        0.000  -0.000   0.000  -0.000
   48       -0.000  -0.000   0.000  -0.000
   49        0.000  -0.000   0.000  -0.000
   50        0.000  -0.000   0.000  -0.000
   51        0.000  -0.000   0.000  -0.000
   52       -0.000   0.000   0.000  -0.000
   53       -0.000  -0.000   0.000  -0.000
   54       -0.000  -0.000   0.000  -0.000
   55        0.000  -0.000   0.000  -0.000
   56       -0.000  -0.000   0.000  -0.000
   57        0.000  -0.000   0.000  -0.000
   58       -0.000   0.000   0.000   0.000
   59        0.000   0.000   0.000   0.000
   60        0.000  -0.000   0.000   0.000
[...]
  100       -0.000   0.000   0.000  -0.000
  101       -0.000   0.000   0.000   0.000
  102       -0.000   0.000   0.000   0.000
  103       -0.000  -0.000   0.000  -0.000
  104        0.000  -0.000   0.000  -0.000
  105        0.000  -0.000   0.000  -0.000
  106       -0.000   0.000   0.000   0.000
  107        0.000   0.000   0.000   0.000
  108        0.000  -0.000   0.000  -0.000
  109       -0.000  -0.000   0.000  -0.000
  110       -0.000   0.000   0.000  -0.000
  111        0.000  -0.000  -0.000  -0.000
  112       -0.000   0.000  -0.000  -0.000
  113        0.000  -0.000  -0.000  -0.000
  114       -0.000   0.000   0.000   0.000
tot          0.000  -0.000  -0.000  -0.000