 vasp.5.4.4.18Apr17-6-g9f103f2a35 (build Dec 31 2018 11:41:54) complex

 executed on             LinuxIFC date 2022.06.29  12:49:54

 INCAR:
 POTCAR:   PAW_PBE O 08Apr2002
 POTCAR:   PAW_PBE Si 05Jan2001
 POTCAR:   PAW_PBE Al 04Jan2001
 POTCAR:   PAW_PBE Ag 06Sep2000
 POTCAR:    PAW_PBE S 17Jan2003
 POTCAR:   PAW_PBE O 08Apr2002
   VRHFIN =O: s2p4

   TITEL  = PAW_PBE O 08Apr2002
   POMASS =   16.000; ZVAL   =    6.000    mass and valenz
   ENMAX  =  400.000; ENMIN  =  300.000 eV
   QCUT   =   -5.520; QGAM   =   11.041    optimization parameters

   Description
     l     E      TYP  RCUT    TYP  RCUT
     0   .000     23  1.200
     0  -.700     23  1.200
     1   .000     23  1.520
     1   .600     23  1.520
     2   .000      7  1.500

 POTCAR:   PAW_PBE Si 05Jan2001
   VRHFIN =Si: s2p2

   TITEL  = PAW_PBE Si 05Jan2001
   POMASS =   28.085; ZVAL   =    4.000    mass and valenz
   ENMAX  =  245.345; ENMIN  =  184.009 eV
   QCUT   =   -4.246; QGAM   =    8.493    optimization parameters

[...]

 POTCAR:   PAW_PBE Al 04Jan2001
   VRHFIN =Al: s2p1

[...]

 POTCAR:   PAW_PBE Ag 06Sep2000
   VRHFIN =Ag : s1 d10

   TITEL  = PAW_PBE Ag 06Sep2000
   POMASS =  107.868; ZVAL   =   11.000    mass and valenz
   ENMAX  =  249.846; ENMIN  =  187.385 eV
   QCUT   =   -4.285; QGAM   =    8.570    optimization parameters

[...]

 POTCAR:    PAW_PBE S 17Jan2003
   VRHFIN =S : s2p4

   TITEL  = PAW_PBE S 17Jan2003
   POMASS =   32.066; ZVAL   =    6.000    mass and valenz
   ENMAX  =  280.000; ENMIN  =  194.016 eV
   QCUT   =   -4.360; QGAM   =    8.721    optimization parameters

   Description
     l     E      TYP  RCUT    TYP  RCUT
     0   .000     23  1.900
     0   .000     23  1.900
     1   .000     23  1.900
     1   .000     23  1.900
     2   .000     23  1.900

 Optimization of the real space projectors (new method)

 maximal supplied QI-value         = 24.76
 optimisation between [QCUT,QGAM] = [ 10.15, 20.30] = [ 28.85,115.39] Ry
 Optimized for a Real-space Cutoff    1.51 Angstroem

   l    n(q)    QCUT    max X(q) W(low)/X(q) W(high)/X(q)  e(spline)
   0      9    10.150     4.192    0.32E-04    0.13E-04    0.13E-06
   0      9    10.150     8.473    0.18E-03    0.20E-03    0.43E-06
   1      9    10.150     2.474    0.32E-04    0.33E-04    0.64E-07
   1      9    10.150     3.912    0.13E-03    0.16E-03    0.33E-06
 Optimization of the real space projectors (new method)

[...]

   l    n(q)    QCUT    max X(q) W(low)/X(q) W(high)/X(q)  e(spline)
   2      8    10.195     3.831    0.11E-04    0.20E-04    0.48E-07
   2      8    10.195    20.184    0.23E-03    0.42E-03    0.20E-06
   0      9    10.195    16.770    0.13E-04    0.90E-05    0.63E-08
   0      9    10.195    80.708    0.19E-03    0.15E-03    0.44E-07
   1      9    10.195     6.696    0.12E-04    0.45E-04    0.30E-07
   1      9    10.195     8.973    0.12E-03    0.15E-03    0.13E-06
 Optimization of the real space projectors (new method)

 maximal supplied QI-value         = 19.84
 optimisation between [QCUT,QGAM] = [ 10.12, 20.44] = [ 28.68,116.96] Ry
 Optimized for a Real-space Cutoff    1.42 Angstroem

   l    n(q)    QCUT    max X(q) W(low)/X(q) W(high)/X(q)  e(spline)
   0      9    10.119     5.487    0.15E-04    0.47E-05    0.66E-08
   0      9    10.119    85.627    0.51E-04    0.92E-04    0.63E-07
   1      8    10.119     3.530    0.37E-05    0.76E-05    0.28E-07
   1      8    10.119    42.714    0.16E-03    0.16E-03    0.23E-06
 PAW_PBE O 08Apr2002                    :
 PAW_PBE Si 05Jan2001                   :
 PAW_PBE Al 04Jan2001                   :
 PAW_PBE Ag 06Sep2000                   :
  PAW_PBE S 17Jan2003                   :

 POSCAR: O  C
  positions in direct lattice
  velocities in cartesian coordinates
 exchange correlation table for  LEXCH =        8
   RHO(1)=    0.500       N(1)  =     2000
   RHO(2)=  100.500       N(2)  =     4000

 VTST: version 3.2, (02/03/18)

 CHAIN: initializing optimizer

 OPT: Using VASP Quick-Min optimizer
 CHAIN: Read ICHAIN            1

 POSCAR: O  C
  positions in direct lattice
  velocities in cartesian coordinates
 CHAIN: Running the Dynamical Matrix

 ion  position               nearest neighbor table
   1  0.900  0.099  0.118-  75 1.63  82 1.63
   2  0.106  0.891  0.878-  76 1.62  81 1.63
   3  0.894  0.795  0.129-  85 1.62  77 1.64
   4  0.096  0.197  0.864-  78 1.63  84 1.63
   5  0.197  0.105  0.115-  79 1.62  83 1.63
   6  0.803  0.907  0.879-  80 1.60 108 1.72
   7  0.556  0.428  0.454-  86 1.62  92 1.63
   8  0.764  0.235  0.218-  91 1.59 109 1.73
   9  0.566  0.142  0.470-  96 1.64  87 1.64
  10  0.768  0.541  0.205-  95 1.63  88 1.63
  11  0.866  0.428  0.458-  94 1.62  89 1.63
  12  0.465  0.237  0.183-  90 1.63  93 1.64
  13  0.231  0.777  0.774- 104 1.61  97 1.64
  14  0.426  0.571  0.525-  98 1.66 103 1.66 112 2.55
  15  0.234  0.453  0.772- 107 1.62  99 1.62
  16  0.430  0.853  0.530- 100 1.63 110 1.79 112 2.27
  17  0.535  0.758  0.805- 101 1.63 106 1.64
  18  0.125  0.561  0.533- 105 1.65 102 1.68 112 2.44
  19  0.978  0.317  0.159-  75 1.61  91 1.63
  20  0.022  0.670  0.841- 104 1.62  76 1.63
  21  0.678  0.673  0.171-  95 1.61  77 1.63
  22  0.314  0.318  0.818- 107 1.62  78 1.63
  23  0.319  0.016  0.177-  79 1.61  93 1.63
  24  0.664  0.982  0.826- 106 1.62  80 1.63
  25  0.326  0.987  0.838-  81 1.61  97 1.63
  26  0.678  0.005  0.161-  82 1.60 109 1.74 111 2.54
  27  0.673  0.673  0.813- 101 1.62 108 1.78 113 2.27
  28  0.334  0.325  0.156-  83 1.62  90 1.62
  29  0.020  0.339  0.832-  99 1.61  84 1.62
  30  0.988  0.671  0.170-  85 1.62  88 1.62
  31  0.647  0.642  0.503- 103 1.61  86 1.62
  32  0.342  0.995  0.475-  87 1.59 110 1.71
  33  0.995  0.339  0.498- 105 1.60  89 1.63
  34  0.339  0.352  0.480-  98 1.61  92 1.63
  35  0.987  0.645  0.504- 102 1.62  94 1.62
  36  0.651  0.009  0.515- 100 1.61  96 1.64
  37  0.119  0.244  0.129-  83 1.61  75 1.62
  38  0.887  0.750  0.852-  76 1.63 108 1.78 113 2.31
  39  0.762  0.879  0.110-  82 1.60  77 1.61
  40  0.231  0.110  0.870-  78 1.61  81 1.62
  41  0.113  0.884  0.128-  79 1.61  85 1.61
  42  0.877  0.125  0.858-  84 1.61  80 1.62
  43  0.776  0.559  0.466-  86 1.61  94 1.62
  44  0.536  0.087  0.175-  93 1.62 109 1.79 111 2.31
  45  0.416  0.211  0.467-  92 1.60  87 1.64
  46  0.903  0.454  0.197-  88 1.61  91 1.63
  47  0.784  0.209  0.453-  89 1.60  96 1.63
  48  0.548  0.456  0.194-  90 1.61  95 1.62
  49  0.447  0.893  0.807- 106 1.62  97 1.64
  50  0.210  0.429  0.540-  98 1.62 105 1.62
  51  0.123  0.557  0.801-  99 1.61 104 1.62
  52  0.580  0.789  0.520- 103 1.61 100 1.64
  53  0.452  0.536  0.799- 107 1.62 101 1.63
  54  0.203  0.778  0.546- 102 1.58 110 1.74
  55  1.000  0.259  0.994-  84 1.62  75 1.63
  56  0.991  0.732  0.001-  76 1.62  85 1.63
  57  0.736  0.716  0.998-  77 1.60 108 1.72
  58  0.256  0.267  0.991-  78 1.63  83 1.63
  59  0.268  0.001  0.003-  81 1.63  79 1.64
  60  0.662  0.591  0.333-  86 1.62  95 1.63
  61  0.633  0.051  0.341-  96 1.60 109 1.72
  62  0.440  0.108  0.324-  93 1.61  87 1.63
  63  0.923  0.590  0.334-  94 1.62  88 1.63
  64  0.940  0.344  0.329-  89 1.62  91 1.64
  65  0.406  0.324  0.321-  92 1.62  90 1.63
  66  0.361  0.952  0.666-  97 1.59 110 1.74
  67  0.354  0.410  0.654-  98 1.63 107 1.64
  68  0.060  0.409  0.665- 105 1.62  99 1.63
  69  0.576  0.897  0.667- 106 1.61 100 1.62
  70  0.570  0.661  0.660- 103 1.61 101 1.62
  71  0.053  0.639  0.670- 104 1.64 102 1.64
  72  0.733  0.014  0.993-  80 1.66  82 1.67 111 2.49
  73  0.742  0.337  0.797- 114 1.44
  74  0.714  0.374  0.635- 114 1.44
  75  0.997  0.229  0.101-  19 1.61  37 1.62  55 1.63   1 1.63  83 3.09  91 3.10  82 3.12  84 3.14

  76  0.003  0.763  0.895-  56 1.62   2 1.62  38 1.63  20 1.63 104 3.06  85 3.13 108 3.16 113 3.37

[...]

 103  0.557  0.667  0.552-  31 1.61  70 1.61  52 1.61  14 1.66 100 3.04  86 3.07  98 3.10
 104  0.110  0.664  0.771-  13 1.61  51 1.62  20 1.62  71 1.64  76 3.06 102 3.06  99 3.07
 105  0.095  0.432  0.559-  33 1.60  68 1.62  50 1.62  18 1.65  89 3.03  99 3.08 102 3.13
 106  0.555  0.882  0.774-  69 1.61  49 1.62  24 1.62  17 1.64  80 3.07  97 3.08 101 3.08
 107  0.338  0.428  0.761-  22 1.62  15 1.62  53 1.62  67 1.64  78 3.07 101 3.07  98 3.10
 108  0.775  0.770  0.891-  57 1.72   6 1.72  38 1.78  27 1.78 113 3.02  77 3.08 101 3.14  76 3.16
                            80 3.22
 109  0.657  0.096  0.230-  61 1.72   8 1.73  26 1.74  44 1.79  93 3.07 111 3.09  96 3.12  82 3.16
                            91 3.23
 110  0.333  0.901  0.556-  32 1.71  54 1.74  66 1.74  16 1.79  87 3.06  97 3.12 100 3.17 112 3.24

 111  0.565  0.028  0.035-  44 2.31  72 2.49  26 2.54 109 3.09  82 3.17
 112  0.320  0.673  0.479-  16 2.27  18 2.44  14 2.55 110 3.24 102 3.26 100 3.34
 113  0.771  0.586  0.775-  27 2.27  38 2.31 114 2.33 108 3.02  76 3.37
 114  0.742  0.411  0.727-  74 1.44  73 1.44 113 2.33

  LATTYP: Found a hexagonal cell.
 ALAT       =    13.6750001907
 C/A-ratio  =     1.0798537472

  Lattice vectors:

 A1 = (  13.6750001907,   0.0000000000,   0.0000000000)
 A2 = (  -6.8375000954,  11.8428975619,   0.0000000000)
 A3 = (   0.0000000000,   0.0000000000,  14.7670001984)

Analysis of symmetry for initial positions (statically):
 Subroutine PRICEL returns:
 Original cell was already a primitive cell.

 Routine SETGRP: Setting up the symmetry group for a
 hexagonal supercell.

 Subroutine GETGRP returns: Found  1 space group operations
 (whereof  1 operations were pure point group operations)
 out of a pool of 24 trial point group operations.

The static configuration has the point symmetry C_1 .

Analysis of symmetry for dynamics (positions and initial velocities):
 Subroutine PRICEL returns:
 Original cell was already a primitive cell.

[...]

The dynamic configuration has the point symmetry C_1 .

Analysis of structural, dynamic, and magnetic symmetry:
 Subroutine PRICEL returns:
 Original cell was already a primitive cell.

 Routine SETGRP: Setting up the symmetry group for a
 hexagonal supercell.

 Subroutine GETGRP returns: Found  1 space group operations
 (whereof  1 operations were pure point group operations)
 out of a pool of 24 trial point group operations.

The magnetic configuration has the point symmetry C_1 .

 Subroutine INISYM returns: Found  1 space group operations
 (whereof  1 operations are pure point group operations),
 and found     1 'primitive' translations

 KPOINTS: Gamma points only
  k-points in reciprocal lattice
Space group operators:
 irot       det(A)        alpha          n_x          n_y          n_z        tau_x        tau_y        tau_z
    1     1.000000     0.000000     1.000000     0.000000     0.000000     0.000000     0.000000     0.000000

 SYSTEM =  zeolite
 POSCAR =  O  C

 Startparameter for this run:
   NWRITE =      2    write-flag & timer
   PREC   = acc       normal or accurate (medium, high low for compatibility)
   ISTART =      0    job   : 0-new  1-cont  2-samecut
   ICHARG =      2    charge: 1-file 2-atom 10-const
   ISPIN  =      2    spin polarized calculation?
   LNONCOLLINEAR =      F non collinear calculations
   LSORBIT =      F    spin-orbit coupling
[...]
 DYNMAT: Loop at J=          69
 DYNMAT: Before DIRKAR
 DYNMAT: After DIRKAR
       1.735051537518538      10.627083568311475       9.844293197452144
 DYNMAT: Loop at J=          70
 DYNMAT: Before DIRKAR
 DYNMAT: After DIRKAR
       3.278331019746873       7.830300895312383       9.749929271990123
 DYNMAT: Loop at J=          71
 DYNMAT: Before DIRKAR
 DYNMAT: After DIRKAR
      -3.652545698975957       7.570605963557341       9.891913447777949
 DYNMAT: Loop at J=          72
 DYNMAT: Before DIRKAR
 DYNMAT: After DIRKAR
       9.935254559740782       0.160844508163891      14.665944383667092
 DYNMAT: Loop at J=          73
 DYNMAT: Before DIRKAR
 DYNMAT: After DIRKAR
       7.847617013845984       3.988896009812910      11.768713443726371
 DYNMAT: Loop at J=          74
 DYNMAT: Before DIRKAR
 DYNMAT: After DIRKAR
       7.207014868191062       4.429881924242223       9.374941712409861
 DYNMAT: Loop at J=          75
 DYNMAT: Before DIRKAR
 DYNMAT: After DIRKAR
      12.072473688413147       2.712635664338440       1.491945391456480
 DYNMAT: Loop at J=          76
 DYNMAT: Before DIRKAR
 DYNMAT: After DIRKAR
      -5.181802757271381       9.039289057721899      13.209776318217450
 DYNMAT: Loop at J=          77
 DYNMAT: Before DIRKAR
 DYNMAT: After DIRKAR
       5.256454723102683       9.054447652012275       1.464556075012937
 DYNMAT: Loop at J=          78
 DYNMAT: Before DIRKAR
 DYNMAT: After DIRKAR
       1.529269531763946       2.636079566294900      13.094343135549693
 DYNMAT: Loop at J=          79
 DYNMAT: Before DIRKAR
 DYNMAT: After DIRKAR
       3.045527279875909       0.029437646509579       1.558846926781369
 DYNMAT: Loop at J=          80
 DYNMAT: Before DIRKAR
 DYNMAT: After DIRKAR
      10.524297896469047       0.042438938298670      13.116277412137981
 DYNMAT: Loop at J=          81
 DYNMAT: Before DIRKAR
 DYNMAT: After DIRKAR
      -3.638149477349410      11.802464102379817      13.248193559147641
 DYNMAT: Loop at J=          82
 DYNMAT: Before DIRKAR
 DYNMAT: After DIRKAR
       3.695421310758058      11.836854153351851       1.452057484628608
 DYNMAT: Loop at J=          83
 DYNMAT: Before DIRKAR
 DYNMAT: After DIRKAR
       1.490952330884866       2.776787902866696       1.438581135574494
 DYNMAT: Loop at J=          84
 DYNMAT: Before DIRKAR
 DYNMAT: After DIRKAR
      12.088012929705934       2.705142888965137      13.117668412564798
 DYNMAT: Loop at J=          85
 DYNMAT: Before DIRKAR
 DYNMAT: After DIRKAR
       8.344947905384963       9.123067208882308       1.572713709748840
 DYNMAT: Loop at J=          86
 DYNMAT: Before DIRKAR
 DYNMAT: After DIRKAR
       5.241053258206904       6.563040840930669       6.450300476525825
 DYNMAT: Loop at J=          87
 DYNMAT: Before DIRKAR
 DYNMAT: After DIRKAR
       5.262906520482564       1.308322012241554       6.418710318647575
 DYNMAT: Loop at J=          88
 DYNMAT: Before DIRKAR
 DYNMAT: After DIRKAR
       8.382478973447153       6.664052285692406       3.346770348172241
 DYNMAT: Loop at J=          89
 DYNMAT: Before DIRKAR
 DYNMAT: After DIRKAR
       9.977441326109473       3.890161336716770       6.386011388904512
 DYNMAT: Loop at J=          90
 DYNMAT: Before DIRKAR
 DYNMAT: After DIRKAR
       3.710203478013506       3.964794375855909       3.167190872459334
 DYNMAT: Loop at J=          91
 DYNMAT: Before DIRKAR
 DYNMAT: After DIRKAR
       9.913312892848305       3.955417587266280       3.330693658076095
 DYNMAT: Loop at J=          92
 DYNMAT: Before DIRKAR
 DYNMAT: After DIRKAR
       3.636478050221636       3.877420723612120       6.335621865672493
 DYNMAT: Loop at J=          93
 DYNMAT: Before DIRKAR
 DYNMAT: After DIRKAR
       5.264820487440140       1.327250247563206       3.184572426796031
 DYNMAT: Loop at J=          94
 DYNMAT: Before DIRKAR
 DYNMAT: After DIRKAR
       8.355888963136977       6.564083926666484       6.476261671540774
 DYNMAT: Loop at J=          95
 DYNMAT: Before DIRKAR
 DYNMAT: After DIRKAR
       5.229353315861397       6.694448501171352       3.330100229390082
 DYNMAT: Loop at J=          96
 DYNMAT: Before DIRKAR
 DYNMAT: After DIRKAR
       8.288091522410227       1.207240204902241       6.519346357180807
 DYNMAT: Loop at J=          97
 DYNMAT: Before DIRKAR
 DYNMAT: After DIRKAR
      -1.511658517200954      10.704112320740199      11.325524691415978
 DYNMAT: Loop at J=          98
 DYNMAT: Before DIRKAR
 DYNMAT: After DIRKAR
       1.547325925695911       5.191441296233819       8.136689089383973
 DYNMAT: Loop at J=          99
 DYNMAT: Before DIRKAR
 DYNMAT: After DIRKAR
      -1.502036942492576       5.196808686556075      11.338179218367582
 DYNMAT: Loop at J=         100
 DYNMAT: Before DIRKAR
 DYNMAT: After DIRKAR
       1.556456858257622      10.540029879235304       8.232317428715238
 DYNMAT: Loop at J=         101
 DYNMAT: Before DIRKAR
 DYNMAT: After DIRKAR
       3.117217639890161       7.792003998587470      11.364629426144070
 DYNMAT: Loop at J=         102
 DYNMAT: Before DIRKAR
 DYNMAT: After DIRKAR
      -3.239616353115195       7.817726993747576       8.325372265974442
 DYNMAT: Loop at J=         103
 DYNMAT: Before DIRKAR
 DYNMAT: After DIRKAR
       3.061572226965740       7.899020680535927       8.154376185589307
 DYNMAT: Loop at J=         104
 DYNMAT: Before DIRKAR
 DYNMAT: After DIRKAR
      -3.035542765702750       7.861328688829556      11.379971582345455
 DYNMAT: Loop at J=         105
 DYNMAT: Before DIRKAR
 DYNMAT: After DIRKAR
      -1.651388611581600       5.117850104170639       8.260881031995345
 DYNMAT: Loop at J=         106
 DYNMAT: Before DIRKAR
 DYNMAT: After DIRKAR
       1.555656676380440      10.451286589769873      11.436770881000527
 DYNMAT: Loop at J=         107
 DYNMAT: Before DIRKAR
 DYNMAT: After DIRKAR
       1.689964747889546       5.074577143003307      11.235848889889615
 DYNMAT: Loop at J=         108
 DYNMAT: Before DIRKAR
 DYNMAT: After DIRKAR
       5.332234705637646       9.113985984931052      13.151043681453110
 DYNMAT: Loop at J=         109
 DYNMAT: Before DIRKAR
 DYNMAT: After DIRKAR
       8.322762408087849       1.140669236330153       3.402792904898015
 DYNMAT: Loop at J=         110
 DYNMAT: Before DIRKAR
 DYNMAT: After DIRKAR
      -1.610565705130282      10.668392930523709       8.211833568340053
 DYNMAT: Loop at J=         111
 DYNMAT: Before DIRKAR
 DYNMAT: After DIRKAR
       7.526245900821401       0.336459996655938       0.522259688114832
 DYNMAT: Loop at J=         112
 DYNMAT: Before DIRKAR
 DYNMAT: After DIRKAR
      -0.230348317159848       7.970263242443710       7.076753818882404
 DYNMAT: Loop at J=         113
 DYNMAT: Before DIRKAR
 DYNMAT: After DIRKAR
       6.541969206896439       6.937265980659907      11.437072877352703
 DYNMAT: Loop at J=         114
 DYNMAT: Before DIRKAR
 DYNMAT: After DIRKAR
       7.343924698168754       4.862594502609500      10.740548188711108
 HIPREC TOTAL-FORCE (eV/A)
       0.000190078812881      -0.000110006225899      -0.000351391018631
      -0.000615320000144      -0.000387708614957      -0.000895834215370
       0.000034483813853      -0.000137512751780      -0.000858586873384
      -0.000497757789666       0.000886017415339      -0.000414279971510
       0.000116072864872       0.000662400227224      -0.000396159164578
       0.000894584566698       0.000205495360695      -0.000647743293268
      -0.000833555905629       0.000106625510346      -0.000113047318049
       0.000005652358803       0.000468059915835      -0.000193483328378
      -0.000004981115003       0.000421943001342      -0.000797832718943
       0.000157300436921      -0.000017038685715      -0.002012216122664
       0.000548965520110       0.000279168233276      -0.000592978458940
       0.000169073802744       0.000271631032776      -0.000341249812380
      -0.000021765785309      -0.000413482412259      -0.000042812912332
       0.000144516474674       0.000067957927583      -0.000380939631651
       0.000158190377101      -0.000520174483290       0.000055113439705
      -0.000107071716416       0.000146963697876      -0.000202629527950
       0.000074800242695      -0.000115879062541      -0.000588013352410
       0.000066566062031       0.000374159816700      -0.000051199568939
       0.000087898320043       0.000394147097830      -0.000264917424716
       0.000593232088957      -0.000481095383636       0.000195733649617
       0.000032028002556       0.000399764440697       0.000148980872267
       0.000622050135332       0.000092325835414      -0.000852551316169
       0.000281616155387       0.000415651268402      -0.000888509443597
       0.000551742645391      -0.000109922269437      -0.000129181676274
      -0.000498811253237       0.000142230602482      -0.000028838272900
       0.000542853001364       0.000612366960811      -0.001037692282660
       0.000026033654096       0.000003789208055      -0.000212894187599
      -0.000069263983764       0.000362162637291      -0.000769095084346
      -0.000827301302049      -0.000099019921923      -0.000033842661955
       0.000221809668477       0.000951995880206       0.000218775087462
      -0.000316593805362       0.000865548405379      -0.000819480466008
       0.000322043093051       0.000727044238643      -0.000357571105036
       0.000802100295222       0.000122083217163      -0.000097409608377
      -0.000083325970041      -0.000115455548937      -0.000774110425343
       0.000748194040675       0.000635821029757      -0.000358982045996
      -0.000078818370401       0.000433037208527      -0.000483182087826
       0.000647833038621       0.000702909974946      -0.000853148635168
       0.000220551259620      -0.001666320423354       0.000870000245584
       0.000590967922253      -0.000130205654299       0.000410164339201
      -0.000471751386344      -0.000293049982642      -0.000388240452529
      -0.000329687640807       0.000741616843800       0.000495370836834
       0.000452579406659       0.000640763038124      -0.000569525045275
      -0.000036337677245      -0.000693225379396       0.001248492439711
       0.000205357110020       0.000582377754864      -0.000526558875255
      -0.000199492872849       0.000625131305732      -0.000619826607802
       0.000709854004832       0.000395907426708      -0.000115818321801
       0.000412671495268       0.000014838644609      -0.000731054005507
      -0.000022889199718       0.000373386869784      -0.000284302860744
       0.000703817831986       0.000427691985461      -0.000071647179822
      -0.000090023653390       0.000651028553336      -0.000348476803249
       0.000510034645873       0.000077950641469      -0.000458598915425
      -0.000020430658620       0.000448565581604      -0.000124229983851
       0.000107864955883      -0.000136436380558      -0.000461205896029
       0.000936859323770       0.001616003327402      -0.000431781915767
      -0.000241956233790       0.000353067744760      -0.000828201374555
       0.001293883618850       0.000260849461343       0.000161253865983
      -0.000941987909667       0.000264962835463      -0.000798091969627
       0.000478907590944       0.000379097157482      -0.000280441702167
      -0.000679079802836      -0.000489535705152      -0.000280575445768
       0.001864983320052      -0.000212517896276      -0.000909685293864
[...]
       0.000076378975995       0.000309252256216      -0.000287542433186
       0.000056009369976       0.000239991393491      -0.000776125980466
      -0.001263538042307      -0.001076170025362      -0.000585101576495
       0.000546144160943       0.000269080096586      -0.000666782907679
       0.000492967444368       0.000705030875696      -0.001172899186643
      -0.000079692700434       0.000114858583629      -0.000874689807777
      -0.000230963986541       0.000362536117034      -0.000409195419409
       0.000447342960567      -0.000350764682682      -0.000890357981308
      -0.000112610838987       0.000272398730402      -0.000011721623731
       0.000130325708485       0.000663873253816      -0.000350729555898
      -0.000077534069118       0.000041321556975      -0.000322641576867
       0.000324007142884       0.000499455089763      -0.000389755377090
      -0.000110961097773       0.000240292382673      -0.000249812923952
      -0.001350213726676      -0.002378613789218       0.006264516444534
      -0.023415988581889      -0.000136114340770      -0.074393077465561
DYMAT: ------------------------------
DYMAT: DEGREE OF FREEDOM  73  1  1
DYMAT: ------------------------------
DYMAT: DEGREE OF FREEDOM  73  2  2
DYMAT: ------------------------------
DYMAT: DEGREE OF FREEDOM  73  3  3
DYMAT: ------------------------------
DYMAT: DEGREE OF FREEDOM  74  1  4
DYMAT: ------------------------------
DYMAT: DEGREE OF FREEDOM  74  2  5
DYMAT: ------------------------------
DYMAT: DEGREE OF FREEDOM  74  3  6
DYMAT: ------------------------------
DYMAT: DEGREE OF FREEDOM 114  1  7
DYMAT: ------------------------------
DYMAT: DEGREE OF FREEDOM 114  2  8
DYMAT: ------------------------------
DYMAT: DEGREE OF FREEDOM 114  3  9
DYMAT: LEAVING
 stress matrix after NEB project (eV)
    -23.67517     -0.30345      0.23761
     -0.30345    -24.47962     -0.84685
      0.23761     -0.84685    -27.99707
  FORCES: max atom, RMS     0.077991    0.010880
  FORCE total and by dimension    0.116164    0.074393
  Stress total and by dimension   44.105928   27.997073

 total charge

[...]

 magnetization (x)

# of ion       s       p       d       tot
    1       -0.000  -0.000   0.000  -0.000
    2        0.000  -0.000   0.000  -0.000
    3       -0.000  -0.000   0.000  -0.000
    4        0.000   0.000   0.000   0.000
    5       -0.000  -0.000   0.000  -0.000
    6        0.000   0.000   0.000   0.000
    7       -0.000   0.000   0.000   0.000
    8       -0.000  -0.000   0.000  -0.000
    9        0.000   0.000   0.000   0.000
   10       -0.000  -0.000   0.000  -0.000
   11       -0.000   0.000   0.000   0.000
   12       -0.000   0.000   0.000   0.000
   13        0.000   0.000   0.000   0.000
   14        0.000  -0.000   0.000  -0.000
   15        0.000   0.000   0.000   0.000
   16        0.000  -0.000   0.000  -0.000
   17        0.000  -0.000   0.000  -0.000
   18        0.000  -0.000   0.000  -0.000
   19        0.000  -0.000   0.000  -0.000
   20       -0.000   0.000   0.000   0.000
   21       -0.000  -0.000   0.000  -0.000
   22        0.000  -0.000   0.000  -0.000
   23       -0.000  -0.000   0.000  -0.000
   24       -0.000   0.000   0.000   0.000
   25       -0.000  -0.000   0.000  -0.000
   26        0.000  -0.000   0.000  -0.000
   27       -0.000   0.000   0.000   0.000
   28       -0.000  -0.000   0.000  -0.000
   29        0.000  -0.000   0.000  -0.000
   30       -0.000   0.000   0.000   0.000
   31       -0.000  -0.000   0.000  -0.000
   32       -0.000   0.000   0.000   0.000
   33       -0.000  -0.000   0.000  -0.000
   34       -0.000  -0.000   0.000  -0.000
   35        0.000   0.000   0.000   0.000
   36        0.000  -0.000   0.000  -0.000
   37       -0.000   0.000   0.000   0.000
   38        0.000   0.000   0.000   0.000
   39        0.000  -0.000   0.000  -0.000
   40        0.000  -0.000   0.000  -0.000
   41       -0.000   0.000   0.000   0.000
   42       -0.000  -0.000   0.000  -0.000
   43        0.000   0.000   0.000   0.000
   44       -0.000   0.000   0.000   0.000
   45       -0.000   0.000   0.000   0.000
   46        0.000   0.000   0.000   0.000
   47        0.000   0.000   0.000   0.000
   48        0.000   0.000   0.000   0.000
   49        0.000   0.000   0.000   0.000
   50       -0.000  -0.000   0.000  -0.000
   51        0.000  -0.000   0.000   0.000
   52       -0.000  -0.000   0.000  -0.000
   53        0.000   0.000   0.000   0.000
   54        0.000   0.000   0.000   0.000
   55        0.000  -0.000   0.000  -0.000
   56        0.000   0.000   0.000   0.000
   57        0.000   0.000   0.000   0.000
   58       -0.000  -0.000   0.000  -0.000
   59       -0.000  -0.000   0.000  -0.000
   60        0.000   0.000   0.000   0.000
[...]
  100       -0.000  -0.000   0.000  -0.000
  101       -0.000  -0.000   0.000  -0.000
  102        0.000  -0.000   0.000  -0.000
  103        0.000   0.000   0.000   0.000
  104       -0.000  -0.000   0.000  -0.000
  105        0.000  -0.000   0.000  -0.000
  106       -0.000  -0.000   0.000  -0.000
  107        0.000   0.000   0.000   0.000
  108       -0.000   0.000   0.000  -0.000
  109        0.000  -0.000   0.000  -0.000
  110       -0.000  -0.000   0.000  -0.000
  111        0.000  -0.000  -0.000  -0.000
  112        0.000   0.000  -0.000  -0.000
  113        0.000  -0.000   0.000   0.000
  114       -0.000  -0.000   0.000  -0.000
tot          0.000  -0.000  -0.000  -0.000