 vasp.5.4.4.18Apr17-6-g9f103f2a35 (build Dec 31 2018 11:41:54) complex

 executed on             LinuxIFC date 2022.05.03  19:45:55

 INCAR:
 POTCAR:   PAW_PBE O 08Apr2002
 POTCAR:   PAW_PBE Si 05Jan2001
 POTCAR:   PAW_PBE Al 04Jan2001
 POTCAR:   PAW_PBE Ag 06Sep2000
 POTCAR:   PAW_PBE O 08Apr2002
   VRHFIN =O: s2p4

   TITEL  = PAW_PBE O 08Apr2002
   POMASS =   16.000; ZVAL   =    6.000    mass and valenz
   ENMAX  =  400.000; ENMIN  =  300.000 eV
   QCUT   =   -5.520; QGAM   =   11.041    optimization parameters

   Description
     l     E      TYP  RCUT    TYP  RCUT
     0   .000     23  1.200
     0  -.700     23  1.200
     1   .000     23  1.520
     1   .600     23  1.520
     2   .000      7  1.500

 POTCAR:   PAW_PBE Si 05Jan2001
   VRHFIN =Si: s2p2

   TITEL  = PAW_PBE Si 05Jan2001
   POMASS =   28.085; ZVAL   =    4.000    mass and valenz
   ENMAX  =  245.345; ENMIN  =  184.009 eV
   QCUT   =   -4.246; QGAM   =    8.493    optimization parameters

[...]

 POTCAR:   PAW_PBE Al 04Jan2001
   VRHFIN =Al: s2p1

   TITEL  = PAW_PBE Al 04Jan2001
   POMASS =   26.982; ZVAL   =    3.000    mass and valenz
   ENMAX  =  240.300; ENMIN  =  180.225 eV
   QCUT   =   -4.203; QGAM   =    8.405    optimization parameters

[...]

 POTCAR:   PAW_PBE Ag 06Sep2000
   VRHFIN =Ag : s1 d10

   TITEL  = PAW_PBE Ag 06Sep2000
   POMASS =  107.868; ZVAL   =   11.000    mass and valenz
   ENMAX  =  249.846; ENMIN  =  187.385 eV
   QCUT   =   -4.285; QGAM   =    8.570    optimization parameters

   Description
     l     E      TYP  RCUT    TYP  RCUT
     2   .000     23  2.400
     2   .000     23  2.400
     0   .000     23  2.400
     0   .000     23  2.400
     1  -.200     23  2.400
     1  1.500     23  2.400
     3   .000      7   .000

 Optimization of the real space projectors (new method)

 maximal supplied QI-value         = 24.76
 optimisation between [QCUT,QGAM] = [ 10.15, 20.30] = [ 28.85,115.39] Ry
 Optimized for a Real-space Cutoff    1.51 Angstroem

   l    n(q)    QCUT    max X(q) W(low)/X(q) W(high)/X(q)  e(spline)
   0      9    10.150     4.192    0.32E-04    0.13E-04    0.13E-06
   0      9    10.150     8.473    0.18E-03    0.20E-03    0.43E-06
   1      9    10.150     2.474    0.32E-04    0.33E-04    0.64E-07
   1      9    10.150     3.912    0.13E-03    0.16E-03    0.33E-06
 Optimization of the real space projectors (new method)

[...]

   l    n(q)    QCUT    max X(q) W(low)/X(q) W(high)/X(q)  e(spline)
   0      8    10.119    13.410    0.28E-04    0.17E-04    0.51E-08
   0      8    10.119   140.052    0.10E-03    0.16E-03    0.42E-07
   1      7    10.119     9.624    0.38E-04    0.42E-05    0.15E-07
   1      7    10.119    53.353    0.23E-03    0.17E-03    0.13E-06
 Optimization of the real space projectors (new method)

 maximal supplied QI-value         = 15.68
 optimisation between [QCUT,QGAM] = [ 10.20, 20.39] = [ 29.11,116.42] Ry
 Optimized for a Real-space Cutoff    1.51 Angstroem

   l    n(q)    QCUT    max X(q) W(low)/X(q) W(high)/X(q)  e(spline)
   2      8    10.195     3.831    0.11E-04    0.20E-04    0.48E-07
   2      8    10.195    20.184    0.23E-03    0.42E-03    0.20E-06
   0      9    10.195    16.770    0.13E-04    0.90E-05    0.63E-08
   0      9    10.195    80.708    0.19E-03    0.15E-03    0.44E-07
   1      9    10.195     6.696    0.12E-04    0.45E-04    0.30E-07
   1      9    10.195     8.973    0.12E-03    0.15E-03    0.13E-06
 PAW_PBE O 08Apr2002                    :
 PAW_PBE Si 05Jan2001                   :
 PAW_PBE Al 04Jan2001                   :
 PAW_PBE Ag 06Sep2000                   :

 POSCAR: O  C
  positions in direct lattice
 exchange correlation table for  LEXCH =        8
   RHO(1)=    0.500       N(1)  =     2000
   RHO(2)=  100.500       N(2)  =     4000

 VTST: version 3.2, (02/03/18)

 CHAIN: initializing optimizer

 OPT: Using VASP Dynamics algorithm
 CHAIN: Read ICHAIN            0

 POSCAR: O  C
  positions in direct lattice

 ion  position               nearest neighbor table
   1  0.898  0.096  0.120-  73 1.63  80 1.63
   2  0.102  0.885  0.882-  79 1.62  74 1.63
   3  0.891  0.791  0.125-  83 1.61  75 1.63
   4  0.093  0.195  0.868-  76 1.63  82 1.63
   5  0.194  0.103  0.117-  77 1.63  81 1.63
   6  0.796  0.899  0.881-  78 1.59 106 1.73
   7  0.551  0.423  0.460-  84 1.62  90 1.63
   8  0.762  0.234  0.220-  89 1.59 107 1.73
   9  0.564  0.141  0.472-  94 1.64  85 1.65
  10  0.764  0.536  0.203-  93 1.63  86 1.63
  11  0.862  0.423  0.467-  92 1.63  87 1.64
  12  0.464  0.236  0.184-  88 1.63  91 1.64
  13  0.227  0.773  0.770- 102 1.60  95 1.64
  14  0.423  0.567  0.525-  96 1.66 101 1.67 110 2.53
  15  0.228  0.445  0.773-  97 1.62 105 1.62
  16  0.426  0.848  0.533-  98 1.63 108 1.79 110 2.27
  17  0.529  0.754  0.805-  99 1.63 104 1.64
  18  0.122  0.559  0.533- 103 1.66 100 1.67 110 2.45
  19  0.976  0.314  0.163-  73 1.61  89 1.63
  20  0.019  0.667  0.841- 102 1.61  74 1.63
  21  0.679  0.674  0.179-  93 1.61  75 1.63
  22  0.310  0.313  0.818- 105 1.62  76 1.63
  23  0.317  0.015  0.178-  77 1.61  91 1.63
  24  0.659  0.978  0.830- 104 1.62  78 1.63
  25  0.320  0.982  0.839-  79 1.62  95 1.63
  26  0.677  0.004  0.164-  80 1.60 107 1.74 109 2.55
  27  0.666  0.668  0.815-  99 1.62 106 1.78 111 2.22
  28  0.330  0.322  0.159-  81 1.62  88 1.62
  29  0.014  0.334  0.832-  97 1.61  82 1.62
  30  0.986  0.671  0.178-  86 1.62  83 1.62
  31  0.645  0.639  0.504- 101 1.61  84 1.62
  32  0.341  0.990  0.474-  85 1.59 108 1.71
  33  0.994  0.336  0.498- 103 1.61  87 1.63
  34  0.333  0.347  0.481-  96 1.61  90 1.63
  35  0.985  0.641  0.504- 100 1.62  92 1.62
  36  0.646  0.005  0.515-  98 1.61  94 1.64
  37  0.117  0.243  0.128-  81 1.61  73 1.62
  38  0.883  0.746  0.862-  74 1.60 106 1.75 111 2.58
  39  0.761  0.878  0.115-  80 1.60  75 1.61
  40  0.225  0.105  0.871-  76 1.61  79 1.62
  41  0.110  0.882  0.130-  77 1.61  83 1.61
  42  0.873  0.119  0.861-  82 1.62  78 1.63
  43  0.770  0.550  0.475-  84 1.62  92 1.62
  44  0.535  0.086  0.175-  91 1.62 107 1.79 109 2.31
  45  0.411  0.206  0.468-  90 1.60  85 1.64
  46  0.903  0.453  0.196-  86 1.61  89 1.63
  47  0.782  0.205  0.454-  87 1.60  94 1.63
  48  0.544  0.456  0.196-  88 1.61  93 1.62
  49  0.443  0.889  0.807- 104 1.62  95 1.64
  50  0.208  0.427  0.542-  96 1.62 103 1.62
  51  0.120  0.554  0.802-  97 1.62 102 1.62
  52  0.577  0.786  0.522- 101 1.61  98 1.64
  53  0.446  0.532  0.801- 105 1.62  99 1.62
  54  0.199  0.775  0.550- 100 1.57 108 1.74
  55  0.994  0.257  0.996-  82 1.62  73 1.63
  56  0.994  0.725  0.005-  83 1.63  74 1.63
  57  0.723  0.710  0.003-  75 1.60 106 1.73
  58  0.256  0.264  0.992-  76 1.63  81 1.63
  59  0.266  0.999  0.005-  79 1.63  77 1.64
  60  0.663  0.583  0.337-  84 1.61  93 1.63
  61  0.629  0.049  0.342-  94 1.60 107 1.72
  62  0.440  0.108  0.325-  91 1.61  85 1.63
  63  0.910  0.579  0.337-  92 1.61  86 1.63
  64  0.936  0.346  0.332-  87 1.62  89 1.65
  65  0.405  0.322  0.323-  90 1.62  88 1.63
  66  0.359  0.952  0.667-  95 1.59 108 1.74
  67  0.351  0.406  0.655-  96 1.62 105 1.64
  68  0.056  0.406  0.666- 103 1.61  97 1.63
  69  0.574  0.896  0.668- 104 1.62  98 1.62
  70  0.566  0.657  0.662- 101 1.61  99 1.63
  71  0.046  0.631  0.670- 100 1.65 102 1.66
  72  0.730  0.009  0.996-  78 1.66  80 1.67 109 2.48
  73  0.994  0.227  0.102-  19 1.61  37 1.62   1 1.63  55 1.63  89 3.10  81 3.11  80 3.12  82 3.13

  74  0.998  0.757  0.899-  38 1.60  56 1.63   2 1.63  20 1.63 102 3.07  83 3.10 106 3.17
  75  0.762  0.761  0.102-  57 1.60  39 1.61  21 1.63   3 1.63  93 3.01 106 3.06  83 3.13
  76  0.220  0.219  0.888-  40 1.61  58 1.63  22 1.63   4 1.63 105 3.06  81 3.11  82 3.14
  77  0.221  0.000  0.107-  41 1.61  23 1.61   5 1.63  59 1.64  91 3.04  79 3.08
  78  0.767  0.998  0.891-   6 1.59  42 1.63  24 1.63  72 1.66 104 3.07  82 3.10  80 3.11 106 3.24

[...]

 101  0.554  0.663  0.554-  70 1.61  31 1.61  52 1.61  14 1.67  98 3.04  84 3.07  96 3.10
 102  0.106  0.660  0.772-  13 1.60  20 1.61  51 1.62  71 1.66  74 3.07 100 3.07  97 3.08
 103  0.093  0.429  0.560-  33 1.61  68 1.61  50 1.62  18 1.66  87 3.02  97 3.08 100 3.13
 104  0.551  0.879  0.776-  69 1.62  49 1.62  24 1.62  17 1.64  78 3.07  95 3.09  99 3.09
 105  0.333  0.424  0.762-  22 1.62  15 1.62  53 1.62  67 1.64  76 3.06  99 3.07  96 3.10
 106  0.768  0.762  0.895-  57 1.73   6 1.73  38 1.75  27 1.78  75 3.06 111 3.12  99 3.14  74 3.17
                            78 3.24
 107  0.654  0.095  0.231-  61 1.72   8 1.73  26 1.74  44 1.79  91 3.06 109 3.10  94 3.12  80 3.17
                            89 3.23
 108  0.330  0.898  0.558-  32 1.71  66 1.74  54 1.74  16 1.79  85 3.07  95 3.09  98 3.17 110 3.26

 109  0.563  0.026  0.036-  44 2.31  72 2.48  26 2.55 107 3.10  80 3.17
 110  0.318  0.669  0.481-  16 2.27  18 2.45  14 2.53 108 3.26 100 3.28  98 3.33
 111  0.753  0.582  0.756-  27 2.22  38 2.58 106 3.12  99 3.36

  LATTYP: Found a hexagonal cell.
 ALAT       =    13.6750001907
 C/A-ratio  =     1.0798537472

  Lattice vectors:

 A1 = (  13.6750001907,   0.0000000000,   0.0000000000)
 A2 = (  -6.8375000954,  11.8428975619,   0.0000000000)
 A3 = (   0.0000000000,   0.0000000000,  14.7670001984)

Analysis of symmetry for initial positions (statically):
 Subroutine PRICEL returns:
 Original cell was already a primitive cell.

 Routine SETGRP: Setting up the symmetry group for a
 hexagonal supercell.

 Subroutine GETGRP returns: Found  1 space group operations
 (whereof  1 operations were pure point group operations)
 out of a pool of 24 trial point group operations.

The static configuration has the point symmetry C_1 .

Analysis of symmetry for dynamics (positions and initial velocities):
 Subroutine PRICEL returns:
 Original cell was already a primitive cell.

[...]

The dynamic configuration has the point symmetry C_1 .

Analysis of structural, dynamic, and magnetic symmetry:
 Subroutine PRICEL returns:
 Original cell was already a primitive cell.

 Routine SETGRP: Setting up the symmetry group for a
 hexagonal supercell.

 Subroutine GETGRP returns: Found  1 space group operations
 (whereof  1 operations were pure point group operations)
 out of a pool of 24 trial point group operations.

The magnetic configuration has the point symmetry C_1 .

 Subroutine INISYM returns: Found  1 space group operations
 (whereof  1 operations are pure point group operations),
 and found     1 'primitive' translations

 KPOINTS: Gamma points only
  k-points in reciprocal lattice
Space group operators:
 irot       det(A)        alpha          n_x          n_y          n_z        tau_x        tau_y        tau_z
    1     1.000000     0.000000     1.000000     0.000000     0.000000     0.000000     0.000000     0.000000

 Subroutine IBZKPT_HF returns following result:

 Found      1 k-points in 1st BZ
 the following      1 k-points will be used (e.g. in the exchange kernel)
 Following reciprocal coordinates:   # in IRBZ
  0.000000  0.000000  0.000000    1.00000000   1 t-inv F

 SYSTEM =  SiO2
 POSCAR =  O  C

 Startparameter for this run:
   NWRITE =      2    write-flag & timer
   PREC   = acc       normal or accurate (medium, high low for compatibility)
[...]
   -.586E+02 0.674E+02 -.673E+02   0.739E+02 -.719E+02 0.716E+02   -.138E+02 0.406E+01 -.373E+01   0.199E-02 -.579E-02 -.343E-02
   0.132E+03 -.209E+03 -.508E+01   -.143E+03 0.230E+03 0.604E+01   0.104E+02 -.181E+02 -.862E+00   0.321E-03 0.522E-02 -.126E-01
   0.217E+03 0.206E+00 -.216E+02   -.240E+03 0.102E+01 0.241E+02   0.200E+02 -.115E+01 -.217E+01   -.349E-02 0.280E-02 -.452E-02
   -.237E+03 -.388E+02 -.440E+02   0.261E+03 0.434E+02 0.498E+02   -.209E+02 -.399E+01 -.522E+01   0.705E-03 -.237E-02 -.113E-01
   -.151E+03 -.209E+03 0.138E+02   0.165E+03 0.226E+03 -.107E+02   -.129E+02 -.152E+02 -.269E+01   0.104E-03 -.115E-02 0.174E-01
   0.246E+03 0.795E+02 0.248E+02   -.265E+03 -.954E+02 -.295E+02   0.167E+02 0.141E+02 0.412E+01   0.536E-03 -.945E-03 0.152E-01
   -.125E+03 0.266E+03 0.107E+02   0.136E+03 -.288E+03 -.120E+02   -.997E+01 0.199E+02 0.112E+01   0.820E-03 0.271E-02 0.166E-01
   0.152E+03 0.232E+03 0.583E+02   -.167E+03 -.249E+03 -.663E+02   0.136E+02 0.155E+02 0.713E+01   0.813E-04 0.394E-02 0.157E-01
   0.140E+03 -.237E+03 0.203E+02   -.153E+03 0.257E+03 -.197E+02   0.113E+02 -.176E+02 -.669E+00   -.158E-02 -.138E-02 0.173E-01
   -.240E+03 -.748E+02 -.436E+02   0.261E+03 0.837E+02 0.510E+02   -.182E+02 -.790E+01 -.658E+01   0.640E-03 -.181E-02 0.170E-01
   0.196E+01 -.124E+03 -.201E+03   -.215E+01 0.131E+03 0.220E+03   0.183E+00 -.656E+01 -.165E+02   0.692E-03 0.476E-02 -.142E-01
   0.273E+02 0.448E+01 0.113E+03   -.381E+02 -.681E+01 -.129E+03   0.952E+01 0.191E+01 0.137E+02   -.160E-02 -.616E-02 -.992E-02
   0.595E+02 0.541E+02 -.170E+03   -.613E+02 -.564E+02 0.180E+03   0.160E+01 0.204E+01 -.879E+01   -.203E-02 -.426E-02 -.152E-01
   -.553E+02 -.352E+02 0.192E+03   0.565E+02 0.344E+02 -.207E+03   -.110E+01 0.665E+00 0.137E+02   0.226E-02 0.303E-02 -.981E-02
   -.612E+02 0.435E+02 -.199E+03   0.629E+02 -.451E+02 0.215E+03   -.155E+01 0.137E+01 -.139E+02   0.124E-02 -.311E-02 -.146E-01
   0.774E+02 -.595E+02 0.217E+03   -.847E+02 0.625E+02 -.237E+03   0.647E+01 -.271E+01 0.171E+02   -.243E-02 0.191E-02 -.892E-02
   -.325E+01 -.847E+02 -.169E+03   0.372E+01 0.853E+02 0.190E+03   -.606E+00 -.475E+00 -.187E+02   -.165E-02 0.637E-03 0.179E-01
   -.822E+01 0.680E+02 0.746E+02   0.193E+02 -.733E+02 -.893E+02   -.992E+01 0.472E+01 0.131E+02   0.121E-03 -.257E-03 -.122E-01
   0.139E+03 0.102E+03 -.205E+03   -.146E+03 -.110E+03 0.227E+03   0.670E+01 0.701E+01 -.196E+02   -.305E-03 0.390E-02 0.162E-01
   -.109E+03 -.578E+02 0.204E+03   0.115E+03 0.599E+02 -.225E+03   -.612E+01 -.180E+01 0.178E+02   0.272E-03 0.206E-02 -.101E-01
   -.133E+03 0.881E+02 -.137E+03   0.140E+03 -.947E+02 0.147E+03   -.564E+01 0.572E+01 -.952E+01   -.759E-04 0.204E-02 0.156E-01
   0.111E+03 -.693E+02 0.186E+03   -.117E+03 0.742E+02 -.203E+03   0.521E+01 -.426E+01 0.154E+02   -.153E-02 0.256E-02 -.101E-01
   0.168E+02 -.671E+02 -.183E+03   -.194E+02 0.670E+02 0.204E+03   0.235E+01 0.910E-01 -.188E+02   0.929E-03 -.696E-03 -.192E-03
   0.508E+00 0.212E+03 0.141E+03   -.107E+01 -.216E+03 -.151E+03   0.607E+00 0.337E+01 0.886E+01   0.141E-02 0.178E-02 0.155E-01
   0.133E+02 0.200E+02 -.249E+03   -.680E+01 -.162E+02 0.269E+03   -.568E+01 -.336E+01 -.178E+02   -.128E-02 -.115E-02 0.785E-03
   -.199E+03 -.137E+03 0.214E+03   0.208E+03 0.146E+03 -.236E+03   -.789E+01 -.767E+01 0.194E+02   0.135E-02 -.387E-02 0.155E-01
   -.694E+02 0.713E+02 -.241E+03   0.734E+02 -.741E+02 0.263E+03   -.349E+01 0.251E+01 -.195E+02   0.394E-02 -.840E-03 0.676E-03
   0.172E+03 -.184E+03 0.123E+03   -.170E+03 0.200E+03 -.129E+03   -.179E+01 -.133E+02 0.575E+01   -.251E-03 -.293E-02 0.157E-01
   0.985E+02 -.203E+03 -.773E+01   -.108E+03 0.220E+03 0.816E+01   0.850E+01 -.147E+02 -.379E+00   -.144E-02 0.392E-02 -.172E-01
   -.123E+03 0.194E+03 -.257E+02   0.133E+03 -.213E+03 0.268E+02   -.897E+01 0.167E+02 -.106E+01   -.439E-03 -.474E-02 -.178E-01
   0.112E+03 0.208E+03 0.294E+02   -.120E+03 -.229E+03 -.396E+02   0.713E+01 0.192E+02 0.894E+01   -.119E-02 -.549E-02 -.181E-01
   -.968E+02 -.210E+03 -.226E+01   0.105E+03 0.229E+03 0.193E+01   -.760E+01 -.172E+02 0.288E+00   0.252E-02 0.518E-02 -.171E-01
   -.195E+03 0.605E+01 -.119E+01   0.218E+03 -.480E+01 0.240E+01   -.200E+02 -.110E+01 -.107E+01   0.176E-02 0.205E-03 -.172E-01
   0.848E+02 -.198E+03 0.970E+01   -.913E+02 0.213E+03 -.105E+02   0.568E+01 -.133E+02 0.682E+00   -.198E-02 -.140E-03 0.569E-02
[...]
   -.810E+02 -.734E+02 0.348E+02   0.784E+02 0.742E+02 -.359E+02   0.241E+01 -.636E+00 0.899E+00   0.973E-03 -.215E-02 0.105E-01
   -.222E+02 0.234E+02 -.657E+02   0.236E+02 -.229E+02 0.664E+02   -.158E+01 -.413E+00 -.669E+00   0.199E-02 -.245E-02 0.194E-02
   0.923E+02 -.567E+02 0.311E+02   -.919E+02 0.612E+02 -.314E+02   -.779E+00 -.456E+01 0.762E+00   -.740E-03 -.137E-02 0.107E-01
   -.793E+02 -.498E+02 0.521E+02   0.802E+02 0.513E+02 -.519E+02   -.926E+00 -.143E+01 -.396E+00   0.998E-03 -.148E-02 0.108E-01
   0.378E+02 0.206E+02 -.556E+02   -.379E+02 -.205E+02 0.557E+02   -.114E+00 -.487E+00 -.941E+00   -.130E-02 -.218E-02 0.207E-02
   0.436E+01 0.114E+03 0.319E+02   -.568E+01 -.115E+03 -.314E+02   0.104E+01 0.108E+01 -.549E+00   0.484E-03 0.972E-03 0.107E-01
   0.907E+00 -.570E+02 -.340E+02   -.141E+01 0.576E+02 0.336E+02   0.386E+00 -.540E+00 0.283E+00   0.577E-03 -.122E-02 0.171E-02
   -.584E+02 0.559E+02 -.464E+02   0.575E+02 -.557E+02 0.472E+02   0.691E+00 -.256E+00 -.799E+00   0.234E-02 0.139E-02 0.256E-02
   0.350E+01 0.124E+02 0.758E+01   -.318E+01 -.122E+02 -.568E+01   -.455E+00 -.118E+00 -.175E+01   -.115E-03 -.287E-02 -.604E-02
   -.172E+02 0.399E+02 -.160E+02   0.184E+02 -.396E+02 0.163E+02   -.115E+01 -.290E+00 -.287E+00   -.272E-03 -.475E-03 -.317E-02
   0.763E+02 -.576E+02 0.210E+02   -.767E+02 0.583E+02 -.213E+02   0.344E+00 -.847E+00 0.279E+00   0.167E-03 -.997E-03 0.785E-02
   0.229E+03 0.536E+02 0.217E+03   -.227E+03 -.527E+02 -.212E+03   -.144E+01 -.852E+00 -.451E+01   -.643E-03 0.132E-03 -.326E-01
   0.135E+02 0.891E+01 0.539E+03   -.140E+02 -.573E+01 -.536E+03   0.343E+00 -.299E+01 -.259E+01   0.282E-02 -.436E-02 0.215E-01
   -.185E+03 0.356E+03 0.106E+03   0.181E+03 -.351E+03 -.102E+03   0.397E+01 -.452E+01 -.354E+01   -.679E-03 -.971E-02 0.742E-02
   -.110E+02 0.174E+02 0.404E+02   0.114E-12 -.568E-13 0.426E-13   0.103E+02 -.147E+02 -.350E+02   0.682E-02 -.124E-01 -.170E-01

 POSITION                                       TOTAL-FORCE (eV/Angst)
     11.61656      1.14263      1.76560        -0.239594      0.143382     -0.226962
     -4.65380     10.48280     13.02120         0.094027     -0.127724      0.211992
      6.77948      9.37016      1.84072         0.018720     -0.254639     -0.265733
     -0.06533      2.31047     12.82222         0.031314      0.233300      0.242420
      1.94897      1.21946      1.72566         0.231489      0.120483     -0.187693
      4.73842     10.64621     13.01320        -0.276169      0.043798      0.092718
      4.64064      5.01428      6.78897        -0.243858      0.136430     -0.268827
      8.81730      2.77042      3.24672         0.333269      0.123048      0.051851
      6.75422      1.66556      6.96409        -0.016626     -0.359296     -0.369600
      6.78502      6.34237      2.99739        -0.037840      0.234916      0.221530
      8.89961      5.01298      6.89340         0.303664      0.067252     -0.533070
      4.72990      2.79490      2.71319        -0.236175     -0.097626      0.319400
     -2.18373      9.15644     11.36929        -0.021377      0.206802      0.127398
      1.91035      6.71633      7.75452         0.298417     -0.104756      0.342644
      0.06936      5.27549     11.40919         0.131136     -0.168016     -0.069662
      0.02308     10.04017      7.86690         0.373630      0.255949      0.259141
      2.07588      8.93206     11.89356         0.237934      0.044170     -0.340694
     -2.14527      6.61433      7.87049        -0.008342     -0.207899      0.218026
     11.19500      3.72026      2.40813        -0.137142     -0.344420     -0.045514
     -4.30079      7.90258     12.42414        -0.142462      0.396743      0.139373
      4.67511      7.98166      2.63938         0.420365     -0.106147     -0.188323
      2.09925      3.70635     12.08660        -0.351569      0.104923      0.065222
      4.23396      0.17555      2.63297        -0.120738      0.355165     -0.228834
      2.32720     11.58062     12.25107         0.210531     -0.359101      0.062195
     -2.32994     11.62687     12.38863        -0.258360     -0.261448      0.017567
      9.22481      0.05156      2.41477         0.327211      0.210095     -0.275075
      4.54478      7.91027     12.04086        -0.480630      0.093563     -0.064846
      2.31314      3.81843      2.34131         0.198142     -0.368220     -0.037589
     -2.09489      3.95406     12.28647         0.388683     -0.092967      0.019633
      8.89466      7.94821      2.62228        -0.430139     -0.031591     -0.171678
      4.44950      7.57138      7.44586        -0.293221     -0.260869      0.049328
     -2.10814     11.72481      7.00117         0.345851      0.361421      0.015850
     11.29260      3.97442      7.36008        -0.137216      0.352517      0.006435
      2.18171      4.11406      7.10959         0.270382      0.319471      0.145797
      9.07935      7.59600      7.44771         0.190710     -0.287927     -0.207362
      8.79919      0.06087      7.61189        -0.344744     -0.182233     -0.108721
     -0.06898      2.88248      1.89362         0.018447     -0.137757     -0.342493
      6.96816      8.83381     12.73212         0.131545     -0.193435      0.063291
      4.40107     10.39484      1.69838         0.054214     -0.000941     -0.213388
      2.35505      1.24252     12.85832        -0.028017      0.008219      0.278496
     -4.52744     10.44882      1.92398        -0.046303      0.018520     -0.310463
     11.12395      1.41081     12.70737         0.121242     -0.083898      0.343903
      6.77427      6.50957      7.01486        -0.239033      0.083592     -0.453375
      6.71975      1.02338      2.58207        -0.277633      0.139671      0.339481
      4.21192      2.44346      6.90762         0.113795      0.154470     -0.395768
      9.24860      5.36930      2.89650        -0.133689     -0.041000      0.302288
      9.28936      2.42353      6.71033        -0.125293      0.008114     -0.235173
      4.32621      5.40110      2.89309         0.105307     -0.078662      0.281387
     -0.02623     10.53258     11.91563         0.101783      0.005815     -0.350535
     -0.07442      5.05839      7.99728         0.145288      0.083874      0.197653
     -2.14339      6.55671     11.84144        -0.003133     -0.138651     -0.211468
      2.51744      9.30468      7.70341        -0.133132     -0.209800      0.423289
      2.45615      6.30427     11.82654         0.032024      0.090692     -0.372107
     -2.57967      9.18317      8.11975         0.093068     -0.162804      0.025993
     11.83030      3.04781     14.70262         0.171880     -0.307955     -0.019881
      8.64069      8.58732      0.07751        -0.247047      0.332150     -0.088403
      5.03163      8.40796      0.03897         0.185131      0.363505      0.137959
      1.69281      3.12733     14.64446        -0.147616     -0.351859     -0.019727
     -3.19857     11.83340      0.06839        -0.414441     -0.020192     -0.030136
      5.08660      6.90478      4.96942         0.072020     -0.254608     -0.055589
[...]
     -1.54011      5.13943     11.35262        -0.190805      0.154770     -0.144336
      1.53383     10.49638      8.26386        -0.152036      0.084136     -0.107140
      3.07203      7.74483     11.39559        -0.203043      0.087947      0.077824
     -3.25510      7.77825      8.33480        -0.399877     -0.238193      0.583891
      3.04576      7.85734      8.18300        -0.051794      0.035759     -0.237511
     -3.06141      7.81454     11.40038        -0.220085     -0.319006     -0.904554
     -1.66732      5.08238      8.27560        -0.244143      0.103623     -0.033517
      1.52352     10.41371     11.46238        -0.094000      0.082704     -0.049710
      1.65838      5.01784     11.25349        -0.155073     -0.061292     -0.029458
      5.29844      9.01961     13.21243        -0.142409      0.116547      0.109681
      8.29715      1.12774      3.41813        -0.036140     -0.034600      0.029297
     -1.62940     10.63493      8.23463        -0.071773     -0.124938     -0.055133
      7.52388      0.30863      0.53440        -0.017081     -0.025480      0.024949
     -0.22210      7.92045      7.10021        -0.070951     -0.007169     -0.021604
      6.31199      6.89286     11.16013         0.403373      0.201277      0.021275
    total drift:                               -0.003001     -0.005283      0.002924

  FREE ENERGIE OF THE ION-ELECTRON SYSTEM (eV)
  free  energy   TOTEN  =     -1171.82544286 eV

  energy  without entropy=    -1171.82544286  energy(sigma->0) =    -1171.82544286

 stress matrix after NEB project (eV)
      0.00000      0.00000      0.00000
      0.00000      0.00000      0.00000
      0.00000      0.00000      0.00000
  FORCES: max atom, RMS     0.984083    0.360566
  FORCE total and by dimension    3.798800    0.904554
  Stress total and by dimension    0.000000    0.000000

 total charge

[...]

 magnetization (x)

# of ion       s       p       d       tot
    1        0.000   0.000   0.000   0.000
    2       -0.000   0.000   0.000  -0.000
    3        0.000   0.000   0.000   0.000
    4        0.000  -0.000   0.000  -0.000
    5        0.000   0.000   0.000   0.000
    6       -0.000  -0.000   0.000  -0.000
    7        0.000  -0.000   0.000  -0.000
    8       -0.000   0.000   0.000  -0.000
    9        0.000  -0.000   0.000  -0.000
   10        0.000   0.000   0.000   0.000
   11        0.000  -0.000   0.000  -0.000
   12        0.000   0.000   0.000   0.000
   13        0.000   0.000   0.000   0.000
   14        0.000  -0.000   0.000  -0.000
   15       -0.000  -0.000   0.000  -0.000
   16        0.000   0.000   0.000   0.000
   17       -0.000   0.000   0.000  -0.000
   18       -0.000  -0.000   0.000  -0.000
   19        0.000   0.000   0.000   0.000
   20       -0.000  -0.000   0.000  -0.000
   21        0.000   0.000   0.000   0.000
   22       -0.000  -0.000   0.000  -0.000
   23        0.000   0.000   0.000   0.000
   24       -0.000   0.000   0.000  -0.000
   25       -0.000  -0.000   0.000  -0.000
   26       -0.000   0.000   0.000   0.000
   27       -0.000  -0.000   0.000  -0.000
   28       -0.000   0.000   0.000   0.000
   29       -0.000  -0.000   0.000  -0.000
   30        0.000   0.000   0.000   0.000
   31        0.000   0.000   0.000   0.000
   32       -0.000   0.000   0.000  -0.000
   33       -0.000   0.000   0.000   0.000
   34        0.000   0.000   0.000   0.000
   35       -0.000  -0.000   0.000  -0.000
   36        0.000  -0.000   0.000  -0.000
   37       -0.000   0.000   0.000   0.000
   38       -0.000  -0.000   0.000  -0.000
   39        0.000  -0.000   0.000  -0.000
   40       -0.000  -0.000   0.000  -0.000
   41        0.000  -0.000   0.000  -0.000
   42       -0.000  -0.000   0.000  -0.000
   43        0.000   0.000   0.000   0.000
   44        0.000   0.000   0.000   0.000
   45        0.000   0.000   0.000   0.000
   46        0.000   0.000   0.000   0.000
   47        0.000  -0.000   0.000  -0.000
   48        0.000   0.000   0.000   0.000
   49        0.000  -0.000   0.000  -0.000
   50       -0.000   0.000   0.000   0.000
   51       -0.000   0.000   0.000  -0.000
   52        0.000   0.000   0.000   0.000
   53       -0.000   0.000   0.000  -0.000
   54        0.000  -0.000   0.000  -0.000
   55       -0.000   0.000   0.000  -0.000
   56       -0.000  -0.000   0.000  -0.000
   57        0.000   0.000   0.000   0.000
   58       -0.000  -0.000   0.000  -0.000
   59        0.000  -0.000   0.000  -0.000
   60       -0.000  -0.000   0.000  -0.000
[...]
   97       -0.000   0.000   0.000  -0.000
   98       -0.000  -0.000   0.000  -0.000
   99        0.000   0.000   0.000   0.000
  100        0.000   0.000   0.000   0.000
  101        0.000   0.000   0.000   0.000
  102        0.000  -0.000   0.000  -0.000
  103        0.000   0.000   0.000   0.000
  104       -0.000   0.000   0.000  -0.000
  105       -0.000   0.000   0.000   0.000
  106        0.000   0.000   0.000   0.000
  107       -0.000  -0.000   0.000  -0.000
  108        0.000  -0.000   0.000  -0.000
  109        0.000  -0.000  -0.000  -0.000
  110       -0.000  -0.000   0.000   0.000
  111       -0.000   0.000  -0.000  -0.000
tot         -0.000  -0.000  -0.000  -0.000